Arup





File 221109 HPC_Full model v7-4 - v40 for Roof-v1.gwb
Exported 10/02/2023 14:29:48

GSA 10.1.63.64 64-bit Copyright © Oasys 1985-2022

Beam and Spring Forces and Moments
The force in an element at any point is the force required to maintain
equilibrium if the element is cut at that point and the end 2 part of the
element is discarded.  Thus:     +ve axial forces are tensile
Forces and moments are output in element axis directions
i.e. Fx: axial force;  Fy & Fz: shear forces;  Mxx: torsion;  Myy & Mzz: moments
Element axes for springs are as defined by the spring property axis no.
For Response Spectrum analysis cases only results calculated in the analysis are available and these are only available in the axes in which they were calculated.
e.g. element displacements are only available in global directions; 2D element stresses are only available in local directions; principal stresses are not reported.
For Response Spectrum analysis cases only the sum of Total Reactions are reported.
All components are enveloped.  Components are not coexistent.
Member list:  7416 7502 7526 7527 7528 7530 7531 7534 to 7537 7539 7540 7543 to 7553 7568 to 7576 7578 to 7604 7791 7794 7795 8022 8023 8024 8037 to 8043 8276 to 8279 9172 9239 9241 to 9251 9264 9265 9266 9281 9292 9293 9342 to 9345 9516 to 9525 9533 to 9543 9545 to 9557 9572 to 9575 9848 10035 to 10039 10041 to 10045 10052 to 10059 10066 10107 to 10118 10196 10197 10198 10201 to 10204 10296 10299 10323 10324 10329 10330 10851 to 10854 10875 10876 10877 10880 10885 11049 11050 11051 11082 to 11090 11115 to 11118 11124 11125 11130 11131 11136 to 11144 11480 11481 11509 to 11514 11537 11538 11539 11576 11577 11581 11582 11970 11971 11979 11980 49145 49146 49173 49174 49193 49196 49220 49223
Case list:  C94 : ENV
Refer to Combination Case and Envelope Details for details of enveloping permutations.

START_TABLE Beam and Spring Forces and Moments
,,,,,[kN],,[kN],,[kN],,[kNm],,[kNm],,[kNm],,[kN],,[kNm],
Memb,Case,Node,Pos,Env,Fx,Fx Perm,Fy,Fy Perm,Fz,Fz Perm,Mxx,Mxx Perm,Myy,Myy Perm,Mzz,Mzz Perm,|Fyz|,|Fyz| Perm,|Myz|,|Myz| Perm
7416,C94,5245,0.0%,Max,44.41,P4,25.63,P4,-126.8,P84,4.470,P2,800.1,P33,24.43,P2,282.8,P33,800.1,P33
7416,C94,5245,0.0%,Min,-38.45,P5,-15.70,P5,-282.8,P33,0.5500,P3,344.1,P5,-14.30,P3,126.9,P84,344.4,P5
7416,C94,,8.3%,Max,44.41,P4,25.63,P4,-122.9,P84,4.470,P2,685.8,P33,20.98,P4,277.6,P33,685.8,P33
7416,C94,,8.3%,Min,-38.45,P5,-15.70,P5,-277.6,P33,0.5500,P3,291.5,P5,-14.90,P5,123.1,P84,291.9,P5
7416,C94,,16.7%,Max,44.41,P4,25.63,P4,-119.1,P84,4.470,P2,573.6,P33,18.00,P4,272.4,P33,573.6,P33
7416,C94,,16.7%,Min,-38.45,P5,-15.70,P5,-272.4,P33,0.5500,P3,240.5,P5,-15.97,P5,119.2,P84,241.0,P5
7416,C94,,25.0%,Max,44.41,P4,25.63,P4,-115.2,P84,4.470,P2,463.5,P33,15.02,P4,267.2,P33,463.5,P33
7416,C94,,25.0%,Min,-38.45,P5,-15.70,P5,-267.2,P33,0.5500,P3,191.0,P5,-17.04,P5,115.4,P84,191.8,P5
7416,C94,,33.3%,Max,44.41,P4,25.63,P4,-111.4,P84,4.470,P2,355.6,P33,12.05,P4,262.1,P33,355.6,P33
7416,C94,,33.3%,Min,-38.45,P5,-15.70,P5,-262.0,P33,0.5500,P3,143.1,P5,-18.11,P5,111.6,P84,144.2,P5
7416,C94,,33.3%,Max,55.52,P2,8.097,P2,-80.61,P4,7.880,P28,334.2,P33,5.921,P2,186.3,P33,334.2,P33
7416,C94,,33.3%,Min,-52.71,P3,-5.195,P3,-186.3,P33,2.642,P3,134.6,P5,-3.879,P3,80.98,P4,134.6,P5
7416,C94,,41.7%,Max,55.52,P2,8.097,P2,-76.77,P4,7.880,P28,259.3,P33,5.602,P2,181.1,P33,259.3,P33
7416,C94,,41.7%,Min,-52.71,P3,-5.195,P3,-181.1,P33,2.642,P3,102.4,P5,-4.743,P3,77.16,P4,102.5,P5
7416,C94,,50.0%,Max,55.52,P2,8.097,P2,-72.93,P4,7.880,P28,186.4,P33,5.282,P2,175.9,P33,186.4,P33
7416,C94,,50.0%,Min,-52.71,P3,-5.195,P3,-175.9,P33,2.642,P3,71.85,P5,-5.608,P3,73.34,P4,72.04,P5
7416,C94,,58.3%,Max,55.52,P2,8.097,P2,-69.09,P4,7.880,P28,115.7,P33,4.963,P2,170.8,P33,115.7,P33
7416,C94,,58.3%,Min,-52.71,P3,-5.195,P3,-170.8,P33,2.642,P3,42.84,P5,-6.472,P3,69.52,P4,43.31,P5
7416,C94,,66.7%,Max,55.52,P2,8.097,P2,-65.25,P4,7.880,P28,47.14,P33,4.716,P4,165.6,P33,47.15,P33
7416,C94,,66.7%,Min,-52.71,P3,-5.195,P3,-165.6,P33,2.642,P3,15.40,P5,-7.408,P5,65.71,P4,17.09,P5
7416,C94,,66.7%,Max,44.79,P2,3.722,P2,-8.504,P2,11.10,P6,37.97,P33,2.429,P2,19.39,P3,37.97,P33
7416,C94,,66.7%,Min,-44.29,P3,-2.461,P3,-19.31,P21,3.554,P5,12.35,P5,-1.906,P3,9.017,P4,12.39,P5
7416,C94,,75.0%,Max,44.79,P2,3.722,P2,-4.663,P2,11.10,P6,31.49,P33,2.360,P2,15.59,P3,31.49,P33
7416,C94,,75.0%,Min,-44.29,P3,-2.461,P3,-15.39,P3,3.554,P5,9.424,P3,-2.352,P3,5.466,P4,9.547,P5
7416,C94,,83.3%,Max,44.79,P2,3.722,P2,-0.8231,P2,11.10,P6,27.19,P6,2.291,P2,11.81,P3,27.20,P6
7416,C94,,83.3%,Min,-44.29,P3,-2.461,P3,-11.55,P3,3.554,P5,8.006,P3,-2.798,P3,2.817,P4,8.315,P5
7416,C94,,91.7%,Max,44.79,P2,3.722,P2,3.017,P2,11.10,P6,25.07,P6,2.223,P2,8.097,P3,25.08,P6
7416,C94,,91.7%,Min,-44.29,P3,-2.461,P3,-7.714,P3,3.554,P5,8.155,P3,-3.243,P3,1.682,P84,8.648,P5
7416,C94,7112,100.0%,Max,44.79,P2,3.722,P2,6.857,P2,11.10,P6,25.08,P22,2.154,P2,7.803,P2,25.12,P22
7416,C94,7112,100.0%,Min,-44.29,P3,-2.461,P3,-3.874,P3,3.554,P5,9.869,P3,-3.689,P3,0.1483,P44,10.49,P5
7502,C94,4835,0.0%,Max,151.4,P2,7.144,P4,-85.34,P66,18.05,P19,631.0,P21,7.452,P4,244.1,P33,631.0,P21
7502,C94,4835,0.0%,Min,-117.3,P3,-13.80,P5,-244.1,P33,1.474,P61,159.0,P60,-13.01,P5,85.35,P66,159.0,P60
7502,C94,,3.6%,Max,151.4,P2,7.144,P4,-81.67,P66,18.05,P19,537.9,P21,7.811,P4,239.1,P33,537.9,P21
7502,C94,,3.6%,Min,-117.3,P3,-13.80,P5,-239.1,P33,1.474,P61,123.9,P60,-10.78,P5,81.68,P66,123.9,P60
7502,C94,,7.1%,Max,151.4,P2,7.144,P4,-78.00,P66,18.05,P19,446.8,P21,8.169,P4,234.2,P33,446.8,P21
7502,C94,,7.1%,Min,-117.3,P3,-13.80,P5,-234.2,P33,1.474,P61,90.33,P60,-8.542,P5,78.01,P66,90.33,P60
7502,C94,,10.7%,Max,151.4,P2,7.144,P4,-74.33,P66,18.05,P19,357.6,P21,8.528,P4,229.2,P33,357.6,P21
7502,C94,,10.7%,Min,-117.3,P3,-13.80,P5,-229.2,P33,1.474,P61,58.16,P60,-6.306,P5,74.34,P66,58.19,P60
7502,C94,,14.3%,Max,151.4,P2,7.144,P4,-70.65,P66,18.05,P19,270.4,P21,8.887,P4,224.3,P33,270.4,P21
7502,C94,,14.3%,Min,-117.3,P3,-13.80,P5,-224.3,P33,1.474,P61,27.43,P60,-4.071,P5,70.67,P66,27.54,P60
7502,C94,,14.3%,Max,93.65,P2,2.005,P79,-59.25,P66,14.82,P18,240.2,P21,2.528,P7,189.4,P21,240.2,P21
7502,C94,,14.3%,Min,-92.27,P3,-2.145,P83,-189.4,P21,0.9941,P49,15.28,P60,-1.943,P82,59.25,P66,15.35,P60
7502,C94,,17.9%,Max,93.65,P2,2.005,P79,-55.58,P66,14.82,P18,167.3,P21,2.333,P4,184.4,P21,167.3,P21
7502,C94,,17.9%,Min,-92.27,P3,-2.145,P83,-184.4,P21,0.9941,P49,-10.42,P60,-1.461,P5,55.58,P66,0.9590,P58
7502,C94,,21.4%,Max,93.65,P2,2.005,P79,-51.91,P66,14.82,P18,97.01,P57,2.188,P4,179.5,P21,97.01,P57
7502,C94,,21.4%,Min,-92.27,P3,-2.145,P83,-179.5,P21,0.9941,P49,-34.69,P60,-1.483,P5,51.91,P66,0.4985,P28
7502,C94,,25.0%,Max,93.65,P2,2.005,P79,-48.23,P66,14.82,P18,50.87,P57,2.044,P4,174.5,P21,68.95,P12
7502,C94,,25.0%,Min,-92.27,P3,-2.145,P83,-174.5,P21,0.9941,P49,-68.95,P12,-1.505,P5,48.24,P66,1.754,P33
7502,C94,,28.6%,Max,93.65,P2,2.005,P79,-44.56,P66,14.82,P18,6.167,P57,1.900,P4,169.6,P21,119.8,P13
7502,C94,,28.6%,Min,-92.27,P3,-2.145,P83,-169.6,P21,0.9941,P49,-119.8,P13,-1.527,P5,44.57,P66,1.078,P69
7502,C94,,28.6%,Max,62.11,P2,0.7577,P2,-31.82,P66,11.47,P18,-7.025,P57,1.859,P4,138.9,P21,139.1,P13
7502,C94,,28.6%,Min,-76.87,P3,-0.6769,P3,-138.9,P21,-1.280,P56,-139.1,P13,-1.426,P5,31.82,P66,7.025,P57
7502,C94,,32.1%,Max,62.11,P2,0.7577,P2,-28.15,P66,11.47,P18,-44.41,P69,1.697,P4,133.9,P21,184.7,P25
7502,C94,,32.1%,Min,-76.87,P3,-0.6769,P3,-133.9,P21,-1.280,P56,-184.7,P25,-1.296,P5,28.15,P66,44.41,P69
7502,C94,,35.7%,Max,62.11,P2,0.7577,P2,-24.48,P66,11.47,P18,-64.95,P67,1.536,P4,129.0,P21,230.0,P25
7502,C94,,35.7%,Min,-76.87,P3,-0.6769,P3,-129.0,P21,-1.280,P56,-230.0,P25,-1.166,P5,24.48,P66,64.95,P67
7502,C94,,39.3%,Max,62.11,P2,0.7577,P2,-20.81,P66,11.47,P18,-73.99,P67,1.374,P4,124.0,P21,273.5,P25
7502,C94,,39.3%,Min,-76.87,P3,-0.6769,P3,-124.0,P21,-1.280,P56,-273.5,P25,-1.036,P5,20.81,P66,73.99,P67
7502,C94,,42.9%,Max,62.11,P2,0.7577,P2,-17.13,P66,11.47,P18,-81.60,P67,1.213,P4,119.1,P21,314.9,P25
7502,C94,,42.9%,Min,-76.87,P3,-0.6769,P3,-119.1,P21,-1.280,P56,-314.9,P25,-0.9056,P5,17.13,P66,81.60,P67
7502,C94,,42.9%,Max,42.27,P2,0.7208,P2,-1.668,P66,3.254,P66,-84.10,P66,1.601,P2,86.04,P21,326.3,P25
7502,C94,,42.9%,Min,-66.19,P3,-0.7698,P3,-86.04,P21,-4.611,P57,-326.3,P25,-1.335,P3,1.668,P66,84.10,P66
7502,C94,,46.4%,Max,42.27,P2,0.7208,P2,2.003,P66,3.254,P66,-84.03,P66,1.456,P4,81.08,P21,351.6,P25
7502,C94,,46.4%,Min,-66.19,P3,-0.7698,P3,-81.08,P21,-4.611,P57,-351.6,P25,-1.171,P5,1.467,P67,84.03,P66
7502,C94,,50.0%,Max,42.27,P2,0.7208,P2,5.675,P66,3.254,P66,-82.54,P66,1.338,P4,76.12,P21,375.0,P25
7502,C94,,50.0%,Min,-66.19,P3,-0.7698,P3,-76.12,P21,-4.611,P57,-375.0,P25,-1.034,P5,0.3381,P90,82.54,P66
7502,C94,,53.6%,Max,42.27,P2,0.7208,P2,9.347,P66,3.254,P66,-79.61,P66,1.221,P4,71.17,P21,396.5,P25
7502,C94,,53.6%,Min,-66.19,P3,-0.7698,P3,-71.17,P21,-4.611,P57,-396.5,P25,-0.8976,P5,0.3794,P82,79.61,P66
7502,C94,,57.1%,Max,42.27,P2,0.7208,P2,13.02,P66,3.254,P66,-75.25,P66,1.103,P4,66.21,P21,416.0,P25
7502,C94,,57.1%,Min,-66.19,P3,-0.7698,P3,-66.21,P21,-4.611,P57,-416.0,P25,-0.7610,P5,0.4056,P88,75.25,P66
7502,C94,,57.1%,Max,27.59,P2,0.6037,P2,29.43,P66,-1.873,P4,-73.41,P66,1.376,P2,44.79,P57,418.4,P25
7502,C94,,57.1%,Min,-55.71,P3,-0.7444,P3,-44.79,P57,-8.194,P21,-418.4,P25,-1.180,P3,0.01103,P8,73.41,P66
7502,C94,,60.7%,Max,27.59,P2,0.6037,P2,33.10,P66,-1.873,P4,-61.22,P66,1.281,P2,41.12,P57,422.7,P25
7502,C94,,60.7%,Min,-55.71,P3,-0.7444,P3,-41.12,P57,-8.194,P21,-422.7,P25,-1.030,P3,0.8622,P59,61.22,P66
7502,C94,,64.3%,Max,27.59,P2,0.6037,P2,36.77,P66,-1.873,P4,-47.59,P66,1.200,P4,37.44,P57,425.4,P33
7502,C94,,64.3%,Min,-55.71,P3,-0.7444,P3,-37.44,P57,-8.194,P21,-425.4,P33,-0.8943,P5,0.3228,P23,47.59,P66
7502,C94,,67.9%,Max,27.59,P2,0.6037,P2,40.44,P66,-1.873,P4,-32.54,P66,1.155,P4,40.44,P66,432.1,P21
7502,C94,,67.9%,Min,-55.71,P3,-0.7444,P3,-33.77,P57,-8.194,P21,-432.1,P21,-0.7938,P5,0.8278,P65,32.54,P66
7502,C94,,71.4%,Max,27.59,P2,0.6037,P2,44.11,P66,-1.873,P4,-16.05,P66,1.109,P4,44.11,P66,439.6,P21
7502,C94,,71.4%,Min,-55.71,P3,-0.7444,P3,-30.10,P57,-8.194,P21,-439.6,P21,-0.6932,P5,0.5659,P5,16.05,P66
7502,C94,,71.4%,Max,15.13,P2,1.222,P79,73.32,P18,-1.186,P53,-9.912,P66,1.927,P4,73.32,P18,436.3,P21
7502,C94,,71.4%,Min,-48.49,P21,-0.9314,P92,-23.37,P57,-12.74,P18,-436.3,P21,-1.245,P83,2.024,P71,9.918,P66
7502,C94,,75.0%,Max,15.13,P2,1.222,P79,78.28,P18,-1.186,P53,14.65,P66,1.546,P4,78.28,P18,432.4,P21
7502,C94,,75.0%,Min,-48.49,P21,-0.9314,P92,-19.70,P57,-12.74,P18,-432.4,P21,-1.054,P5,0.4607,P49,12.56,P67
7502,C94,,78.6%,Max,15.13,P2,1.222,P79,83.23,P18,-1.186,P53,40.65,P66,1.164,P4,83.24,P18,426.6,P21
7502,C94,,78.6%,Min,-48.49,P21,-0.9314,P92,-16.02,P57,-12.74,P18,-426.6,P21,-0.8673,P5,1.645,P77,1.883,P42
7502,C94,,82.1%,Max,15.13,P2,1.222,P79,88.19,P18,-1.186,P53,68.08,P66,0.7830,P4,88.19,P18,418.9,P21
7502,C94,,82.1%,Min,-48.49,P21,-0.9314,P92,-12.35,P57,-12.74,P18,-418.9,P21,-0.6810,P5,2.843,P44,1.462,P62
7502,C94,,85.7%,Max,15.13,P2,1.222,P79,93.15,P18,-1.186,P53,96.95,P66,0.4177,P2,93.15,P18,409.2,P21
7502,C94,,85.7%,Min,-48.49,P21,-0.9314,P92,-8.681,P57,-12.74,P18,-409.2,P21,-0.5107,P3,0.7134,P45,0.6820,P82
7502,C94,,85.7%,Max,38.26,P55,36.98,P7,124.7,P18,3.954,P57,107.2,P66,14.28,P7,125.6,P18,398.9,P21
7502,C94,,85.7%,Min,-67.95,P68,-26.90,P83,-5.400,P57,-19.37,P18,-398.9,P21,-10.53,P83,8.014,P45,10.53,P55
7502,C94,,89.3%,Max,38.26,P55,36.98,P7,129.7,P18,3.954,P57,144.7,P66,13.45,P4,130.5,P18,379.5,P21
7502,C94,,89.3%,Min,-67.95,P68,-26.90,P83,-1.729,P57,-19.37,P18,-379.5,P21,-13.60,P5,9.336,P56,1.344,P18
7502,C94,,92.9%,Max,38.26,P55,36.98,P7,134.6,P18,3.954,P57,183.6,P66,14.65,P4,135.4,P18,358.2,P21
7502,C94,,92.9%,Min,-67.95,P68,-26.90,P83,1.943,P57,-19.37,P18,-358.2,P21,-20.78,P5,9.469,P56,13.95,P36
7502,C94,,96.4%,Max,38.26,P55,36.98,P7,139.6,P18,3.954,P57,223.9,P66,20.94,P83,140.4,P18,342.1,P57
7502,C94,,96.4%,Min,-67.95,P68,-26.90,P83,5.615,P57,-19.37,P18,-342.0,P57,-28.99,P7,10.91,P56,13.42,P46
7502,C94,4808,100.0%,Max,38.26,P55,36.98,P7,144.5,P18,3.954,P57,265.6,P66,31.43,P83,145.3,P18,339.3,P57
7502,C94,4808,100.0%,Min,-67.95,P68,-26.90,P83,9.286,P57,-19.37,P18,-339.1,P57,-43.42,P7,13.25,P56,10.34,P12
7526,C94,5222,0.0%,Max,26.99,P4,9.274,P2,-50.42,P46,-1.837,P2,10.85,P2,7.524,P2,115.5,P33,13.20,P2
7526,C94,5222,0.0%,Min,-41.03,P5,-7.525,P3,-115.5,P33,-5.263,P6,-5.801,P3,-6.104,P3,50.43,P46,0.1796,P35
7526,C94,,6.2%,Max,26.99,P4,9.274,P2,-48.40,P46,-1.837,P2,-9.603,P2,6.809,P2,112.8,P33,38.63,P22
7526,C94,,6.2%,Min,-41.03,P5,-7.525,P3,-112.8,P33,-5.263,P6,-38.63,P22,-6.014,P3,48.41,P46,11.77,P2
7526,C94,,12.5%,Max,26.99,P4,9.274,P2,-46.38,P46,-1.837,P2,-29.33,P2,6.094,P2,110.1,P33,78.35,P22
7526,C94,,12.5%,Min,-41.03,P5,-7.525,P3,-110.1,P33,-5.263,P6,-78.35,P22,-5.925,P3,46.39,P46,29.91,P69
7526,C94,,18.7%,Max,26.99,P4,9.274,P2,-44.36,P46,-1.837,P2,-46.43,P69,5.379,P2,107.4,P33,117.1,P22
7526,C94,,18.7%,Min,-41.03,P5,-7.525,P3,-107.4,P33,-5.263,P6,-117.1,P22,-5.836,P3,44.37,P46,46.44,P69
7526,C94,,25.0%,Max,26.99,P4,9.274,P2,-42.34,P46,-1.837,P2,-62.24,P69,4.664,P2,104.6,P33,154.9,P22
7526,C94,,25.0%,Min,-41.03,P5,-7.525,P3,-104.6,P33,-5.263,P6,-154.9,P22,-5.746,P3,42.36,P46,62.25,P69
7526,C94,,25.0%,Max,24.39,P4,5.591,P2,-44.39,P46,13.49,P32,-65.37,P69,4.147,P2,109.4,P33,162.8,P22
7526,C94,,25.0%,Min,-36.87,P5,-4.405,P3,-109.4,P33,5.059,P79,-162.8,P22,-3.272,P3,44.40,P46,65.38,P69
7526,C94,,31.2%,Max,24.39,P4,5.591,P2,-42.37,P46,13.49,P32,-81.50,P69,3.868,P2,106.6,P33,201.1,P22
7526,C94,,31.2%,Min,-36.87,P5,-4.405,P3,-106.6,P33,5.059,P79,-201.1,P22,-3.417,P3,42.38,P46,81.50,P69
7526,C94,,37.5%,Max,24.39,P4,5.591,P2,-40.35,P46,13.49,P32,-96.91,P69,3.589,P2,103.9,P33,238.5,P22
7526,C94,,37.5%,Min,-36.87,P5,-4.405,P3,-103.9,P33,5.059,P79,-238.5,P22,-3.562,P3,40.36,P46,96.91,P69
7526,C94,,43.7%,Max,24.39,P4,5.591,P2,-38.33,P46,13.49,P32,-111.6,P69,3.310,P2,101.2,P33,274.9,P22
7526,C94,,43.7%,Min,-36.87,P5,-4.405,P3,-101.2,P33,5.059,P79,-274.9,P22,-3.708,P3,38.34,P46,111.6,P69
7526,C94,,50.0%,Max,24.39,P4,5.591,P2,-36.31,P46,13.49,P32,-125.6,P69,3.031,P2,98.46,P33,310.3,P22
7526,C94,,50.0%,Min,-36.87,P5,-4.405,P3,-98.46,P33,5.059,P79,-310.3,P22,-3.853,P3,36.32,P46,125.6,P69
7526,C94,,50.0%,Max,19.03,P4,4.074,P2,56.44,P22,-1.188,P69,-118.0,P69,2.649,P2,56.44,P22,290.8,P22
7526,C94,,50.0%,Min,-32.66,P5,-2.977,P3,20.13,P69,-3.393,P26,-290.8,P22,-1.915,P3,20.15,P69,118.0,P69
7526,C94,,56.2%,Max,19.03,P4,4.074,P2,59.17,P22,-1.188,P69,-110.5,P69,2.573,P2,59.17,P22,270.1,P22
7526,C94,,56.2%,Min,-32.66,P5,-2.977,P3,22.15,P69,-3.393,P26,-270.1,P22,-2.232,P3,22.17,P69,110.5,P69
7526,C94,,62.5%,Max,19.03,P4,4.074,P2,61.90,P22,-1.188,P69,-102.1,P57,2.497,P2,61.90,P22,248.5,P30
7526,C94,,62.5%,Min,-32.66,P5,-2.977,P3,24.17,P69,-3.393,P26,-248.5,P30,-2.549,P3,24.19,P69,102.1,P57
7526,C94,,68.7%,Max,19.03,P4,4.074,P2,64.62,P22,-1.188,P69,-93.01,P57,2.422,P2,64.63,P22,226.0,P30
7526,C94,,68.7%,Min,-32.66,P5,-2.977,P3,26.19,P69,-3.393,P26,-226.0,P30,-2.865,P3,26.21,P69,93.01,P57
7526,C94,,75.0%,Max,19.03,P4,4.074,P2,67.35,P22,-1.188,P69,-83.16,P57,2.346,P2,67.35,P22,202.4,P30
7526,C94,,75.0%,Min,-32.66,P5,-2.977,P3,28.21,P69,-3.393,P26,-202.4,P30,-3.182,P3,28.23,P69,83.16,P57
7526,C94,,75.0%,Max,15.70,P2,4.816,P2,118.5,P22,-1.748,P69,-78.38,P57,2.689,P2,118.5,P22,191.1,P30
7526,C94,,75.0%,Min,-29.54,P3,-3.475,P3,47.28,P69,-4.894,P22,-191.1,P30,-1.914,P3,47.29,P69,78.38,P57
7526,C94,,81.3%,Max,15.70,P2,4.816,P2,121.2,P22,-1.748,P69,-61.00,P57,2.781,P2,121.3,P22,148.2,P30
7526,C94,,81.3%,Min,-29.54,P3,-3.475,P3,49.30,P69,-4.894,P22,-148.2,P30,-2.486,P3,49.31,P69,61.00,P57
7526,C94,,87.5%,Max,15.70,P2,4.816,P2,124.0,P22,-1.748,P69,-42.83,P80,2.874,P2,124.0,P22,104.5,P8
7526,C94,,87.5%,Min,-29.54,P3,-3.475,P3,51.32,P69,-4.894,P22,-104.5,P8,-3.058,P3,51.33,P69,42.83,P80
7526,C94,,93.8%,Max,15.70,P2,4.816,P2,126.7,P22,-1.748,P69,-21.86,P2,2.966,P2,126.7,P22,59.86,P8
7526,C94,,93.8%,Min,-29.54,P3,-3.475,P3,53.34,P69,-4.894,P22,-59.86,P8,-3.630,P3,53.35,P69,22.06,P2
7526,C94,7489,100.0%,Max,15.70,P2,4.816,P2,129.4,P22,-1.748,P69,0.3268,P2,3.059,P2,129.4,P22,14.24,P8
7526,C94,7489,100.0%,Min,-29.54,P3,-3.475,P3,55.36,P69,-4.894,P22,-14.24,P8,-4.202,P3,55.37,P69,3.076,P2
7527,C94,4877,0.0%,Max,142.7,P2,16.31,P2,57.27,P2,-2.190,P4,376.1,P2,16.81,P2,172.1,P3,376.5,P2
7527,C94,4877,0.0%,Min,-171.8,P3,-4.254,P3,-172.0,P3,-7.636,P24,-283.8,P3,-4.705,P3,31.21,P4,3.375,P59
7527,C94,,8.3%,Max,142.7,P2,16.31,P2,61.24,P2,-2.190,P4,305.1,P2,13.33,P2,168.1,P3,305.4,P2
7527,C94,,8.3%,Min,-171.8,P3,-4.254,P3,-168.1,P3,-7.636,P24,-259.5,P3,-6.300,P3,32.40,P46,1.837,P67
7527,C94,,16.7%,Max,142.7,P2,16.31,P2,65.21,P2,-2.190,P4,235.8,P2,9.842,P2,164.2,P3,236.0,P2
7527,C94,,16.7%,Min,-171.8,P3,-4.254,P3,-164.1,P3,-7.636,P24,-233.6,P3,-7.895,P3,28.64,P46,0.4523,P60
7527,C94,,25.0%,Max,142.7,P2,16.31,P2,69.17,P2,-2.190,P4,168.2,P2,6.356,P2,160.2,P3,206.2,P3
7527,C94,,25.0%,Min,-171.8,P3,-4.254,P3,-160.1,P3,-7.636,P24,-206.0,P3,-9.491,P3,24.94,P46,2.136,P32
7527,C94,,33.3%,Max,142.7,P2,16.31,P2,73.14,P2,-2.190,P4,102.2,P2,2.869,P2,156.2,P3,177.0,P3
7527,C94,,33.3%,Min,-171.8,P3,-4.254,P3,-156.2,P3,-7.636,P24,-176.7,P3,-11.09,P3,21.34,P46,5.166,P92
7527,C94,,33.3%,Max,89.02,P57,7.586,P2,105.6,P2,5.394,P30,82.73,P2,5.764,P2,121.7,P3,166.6,P3
7527,C94,,33.3%,Min,-88.29,P3,-3.227,P3,-121.6,P3,1.599,P69,-166.5,P3,-2.384,P3,2.403,P43,1.334,P93
7527,C94,,41.7%,Max,89.02,P57,7.586,P2,109.6,P2,5.394,P30,69.24,P2,5.089,P2,117.7,P3,158.1,P3
7527,C94,,41.7%,Min,-88.29,P3,-3.227,P3,-117.7,P3,1.599,P69,-158.1,P3,-3.547,P3,0.9343,P63,6.659,P93
7527,C94,,50.0%,Max,89.02,P57,7.586,P2,113.6,P2,5.394,P30,57.41,P2,4.414,P2,113.8,P2,148.1,P3
7527,C94,,50.0%,Min,-88.29,P3,-3.227,P3,-113.7,P3,1.599,P69,-148.0,P3,-4.709,P3,1.518,P82,5.189,P68
7527,C94,,58.3%,Max,89.02,P57,7.586,P2,117.5,P2,5.394,P30,47.25,P2,3.740,P2,117.8,P2,136.4,P3
7527,C94,,58.3%,Min,-88.29,P3,-3.227,P3,-109.7,P3,1.599,P69,-136.2,P3,-5.871,P3,1.138,P60,1.585,P68
7527,C94,,66.7%,Max,89.02,P57,7.586,P2,121.5,P2,5.394,P30,38.77,P2,3.065,P2,121.8,P2,123.0,P3
7527,C94,,66.7%,Min,-88.29,P3,-3.227,P3,-105.8,P3,1.599,P69,-122.8,P3,-7.034,P3,0.5148,P88,1.723,P68
7527,C94,,66.7%,Max,128.8,P57,10.62,P2,178.0,P2,3.254,P4,57.61,P2,7.627,P2,178.3,P2,132.2,P3
7527,C94,,66.7%,Min,-81.25,P3,-4.639,P3,-52.33,P3,-1.765,P5,-132.2,P3,-3.963,P3,18.96,P5,1.840,P68
7527,C94,,75.0%,Max,128.8,P57,10.62,P2,181.9,P2,3.254,P4,132.3,P2,6.705,P2,182.2,P2,152.3,P3
7527,C94,,75.0%,Min,-81.25,P3,-4.639,P3,-48.36,P3,-1.765,P5,-152.2,P3,-5.561,P3,15.10,P5,0.1359,P92
7527,C94,,83.3%,Max,128.8,P57,10.62,P2,185.9,P2,3.254,P4,208.6,P2,5.784,P2,186.2,P2,208.7,P2
7527,C94,,83.3%,Min,-81.25,P3,-4.639,P3,-44.39,P3,-1.765,P5,-170.6,P3,-7.160,P3,11.30,P5,0.3430,P62
7527,C94,,91.7%,Max,128.8,P57,10.62,P2,189.9,P2,3.254,P4,286.6,P2,4.862,P2,190.2,P2,286.6,P2
7527,C94,,91.7%,Min,-81.25,P3,-4.639,P3,-40.42,P3,-1.765,P5,-187.2,P3,-8.758,P3,7.678,P5,16.65,P84
7527,C94,7482,100.0%,Max,128.8,P57,10.62,P2,193.8,P2,3.254,P4,366.3,P2,3.940,P2,194.1,P2,366.3,P2
7527,C94,7482,100.0%,Min,-81.25,P3,-4.639,P3,-36.46,P3,-1.765,P5,-202.3,P3,-10.36,P3,4.660,P5,41.02,P84
7528,C94,4878,0.0%,Max,74.01,P2,15.69,P4,14.40,P2,-3.224,P2,522.3,P2,15.36,P4,217.7,P3,522.4,P2
7528,C94,4878,0.0%,Min,-140.6,P3,-20.14,P5,-217.0,P3,-10.40,P8,-274.2,P3,-18.37,P5,19.66,P2,3.507,P47
7528,C94,,6.3%,Max,74.01,P2,15.69,P4,18.09,P2,-3.224,P2,438.0,P2,14.83,P4,214.0,P3,438.2,P2
7528,C94,,6.3%,Min,-140.6,P3,-20.14,P5,-213.3,P3,-10.40,P8,-267.9,P3,-16.10,P5,22.50,P2,2.963,P75
7528,C94,,12.5%,Max,74.01,P2,15.69,P4,21.78,P2,-3.224,P2,355.3,P2,14.30,P4,210.3,P3,355.5,P2
7528,C94,,12.5%,Min,-140.6,P3,-20.14,P5,-209.6,P3,-10.40,P8,-260.2,P3,-13.83,P5,25.56,P2,0.8490,P48
7528,C94,,18.8%,Max,74.01,P2,15.69,P4,25.46,P2,-3.224,P2,273.9,P2,13.77,P4,206.7,P3,274.2,P2
7528,C94,,18.8%,Min,-140.6,P3,-20.14,P5,-205.9,P3,-10.40,P8,-250.9,P3,-11.56,P5,24.83,P4,1.060,P67
7528,C94,,25.0%,Max,74.01,P2,15.69,P4,29.15,P2,-3.224,P2,194.0,P2,13.25,P4,203.0,P3,240.5,P3
7528,C94,,25.0%,Min,-140.6,P3,-20.14,P5,-202.2,P3,-10.40,P8,-240.3,P3,-9.283,P5,22.09,P4,5.284,P33
7528,C94,,25.0%,Max,56.26,P4,6.047,P2,70.56,P2,3.309,P6,172.6,P2,4.242,P2,161.1,P3,233.6,P3
7528,C94,,25.0%,Min,-82.46,P5,-6.702,P3,-161.0,P3,0.4592,P3,-233.6,P3,-4.625,P3,8.325,P46,1.817,P20
7528,C94,,31.3%,Max,56.26,P4,6.047,P2,74.25,P2,3.309,P6,110.6,P2,4.654,P2,157.5,P3,205.6,P3
7528,C94,,31.3%,Min,-82.46,P5,-6.702,P3,-157.3,P3,0.4592,P3,-205.5,P3,-4.781,P3,4.648,P46,0.3324,P45
7528,C94,,37.5%,Max,56.26,P4,6.047,P2,77.93,P2,3.309,P6,49.98,P2,5.067,P2,153.8,P3,176.1,P3
7528,C94,,37.5%,Min,-82.46,P5,-6.702,P3,-153.6,P3,0.4592,P3,-176.0,P3,-4.938,P3,1.043,P46,6.101,P4
7528,C94,,43.8%,Max,56.26,P4,6.047,P2,81.62,P2,3.309,P6,-9.173,P2,5.479,P2,150.1,P3,157.3,P22
7528,C94,,43.8%,Min,-82.46,P5,-6.702,P3,-149.9,P3,0.4592,P3,-157.3,P22,-5.094,P3,0.7107,P50,10.68,P2
7528,C94,,50.0%,Max,56.26,P4,6.047,P2,85.31,P2,3.309,P6,-65.22,P69,5.892,P2,146.4,P3,180.0,P30
7528,C94,,50.0%,Min,-82.46,P5,-6.702,P3,-146.3,P3,0.4592,P3,-180.0,P30,-5.250,P3,0.9794,P74,65.23,P69
7528,C94,,50.0%,Max,75.31,P2,4.952,P2,143.7,P2,0.8491,P2,-69.28,P69,2.648,P2,143.8,P2,180.0,P30
7528,C94,,50.0%,Min,-65.66,P3,-5.160,P3,-88.96,P3,-0.6299,P3,-180.0,P30,-2.659,P3,0.1495,P57,69.29,P69
7528,C94,,56.2%,Max,75.31,P2,4.952,P2,147.4,P2,0.8491,P2,-26.72,P2,3.344,P2,147.5,P2,158.5,P33
7528,C94,,56.2%,Min,-65.66,P3,-5.160,P3,-85.27,P3,-0.6299,P3,-158.5,P33,-3.274,P3,0.7607,P44,26.93,P2
7528,C94,,62.5%,Max,75.31,P2,4.952,P2,151.1,P2,0.8491,P2,27.01,P2,4.040,P2,151.1,P2,158.1,P3
7528,C94,,62.5%,Min,-65.66,P3,-5.160,P3,-81.59,P3,-0.6299,P3,-158.1,P3,-3.889,P3,1.619,P45,9.320,P4
7528,C94,,68.7%,Max,75.31,P2,4.952,P2,154.7,P2,0.8491,P2,82.18,P2,4.737,P2,154.8,P2,184.7,P3
7528,C94,,68.7%,Min,-65.66,P3,-5.160,P3,-77.90,P3,-0.6299,P3,-184.6,P3,-4.504,P3,1.313,P69,12.85,P46
7528,C94,,75.0%,Max,75.31,P2,4.952,P2,158.4,P2,0.8491,P2,138.8,P2,5.433,P2,158.5,P2,209.7,P3
7528,C94,,75.0%,Min,-65.66,P3,-5.160,P3,-74.21,P3,-0.6299,P3,-209.7,P3,-5.119,P3,3.106,P69,1.123,P38
7528,C94,,75.0%,Max,145.5,P2,6.819,P4,198.8,P2,8.643,P25,160.0,P2,3.581,P2,198.9,P2,216.5,P3
7528,C94,,75.0%,Min,-94.21,P3,-4.422,P5,-32.29,P3,3.226,P57,-216.5,P3,-2.205,P3,14.03,P5,1.099,P52
7528,C94,,81.2%,Max,145.5,P2,6.819,P4,202.5,P2,8.643,P25,238.5,P2,3.705,P2,202.6,P2,238.6,P2
7528,C94,,81.2%,Min,-94.21,P3,-4.422,P5,-28.60,P3,3.226,P57,-228.4,P3,-3.268,P3,17.57,P5,0.1491,P85
7528,C94,,87.5%,Max,145.5,P2,6.819,P4,206.2,P2,8.643,P25,318.5,P2,4.220,P4,206.3,P2,318.6,P2
7528,C94,,87.5%,Min,-94.21,P3,-4.422,P5,-24.91,P3,3.226,P57,-238.8,P3,-4.721,P5,21.16,P5,1.982,P20
7528,C94,,93.7%,Max,145.5,P2,6.819,P4,209.9,P2,8.643,P25,400.0,P2,4.744,P4,210.0,P2,400.0,P2
7528,C94,,93.7%,Min,-94.21,P3,-4.422,P5,-21.23,P3,3.226,P57,-247.8,P3,-6.184,P5,21.59,P3,2.990,P92
7528,C94,7481,100.0%,Max,145.5,P2,6.819,P4,213.6,P2,8.643,P25,482.9,P2,5.268,P4,213.7,P2,482.9,P2
7528,C94,7481,100.0%,Min,-94.21,P3,-4.422,P5,-17.54,P3,3.226,P57,-255.3,P3,-7.647,P5,17.98,P3,2.853,P68
7530,C94,4879,0.0%,Max,186.5,P2,22.59,P2,-130.1,P2,-12.70,P2,241.2,P33,22.54,P2,319.3,P8,241.2,P33
7530,C94,4879,0.0%,Min,-84.83,P3,-14.58,P3,-319.2,P8,-39.50,P24,99.78,P3,-14.12,P3,132.0,P2,100.8,P3
7530,C94,,3.6%,Max,186.5,P2,22.59,P2,-126.5,P2,-12.70,P2,121.8,P33,18.90,P2,314.5,P8,121.8,P33
7530,C94,,3.6%,Min,-84.83,P3,-14.58,P3,-314.4,P8,-39.50,P24,34.87,P3,-13.51,P3,128.5,P2,37.40,P3
7530,C94,,7.1%,Max,186.5,P2,22.59,P2,-123.0,P2,-12.70,P2,28.32,P2,15.26,P2,309.7,P8,32.17,P2
7530,C94,,7.1%,Min,-84.83,P3,-14.58,P3,-309.6,P8,-39.50,P24,-28.70,P3,-12.90,P3,125.0,P2,0.2010,P43
7530,C94,,10.7%,Max,186.5,P2,22.59,P2,-119.4,P2,-12.70,P2,-28.72,P2,11.62,P2,304.9,P8,117.4,P22
7530,C94,,10.7%,Min,-84.83,P3,-14.58,P3,-304.8,P8,-39.50,P24,-117.4,P22,-12.29,P3,121.5,P2,30.98,P2
7530,C94,,14.3%,Max,186.5,P2,22.59,P2,-115.9,P2,-12.70,P2,-84.41,P2,7.982,P2,300.1,P8,231.7,P22
7530,C94,,14.3%,Min,-84.83,P3,-14.58,P3,-300.0,P8,-39.50,P24,-231.7,P22,-11.68,P3,118.0,P2,84.79,P2
7530,C94,,14.3%,Max,172.4,P2,5.312,P2,-111.0,P2,-10.19,P2,-98.40,P2,3.349,P2,279.6,P8,266.7,P24
7530,C94,,14.3%,Min,-79.85,P3,-4.194,P3,-279.6,P8,-32.71,P6,-266.7,P24,-2.484,P3,111.1,P2,98.46,P2
7530,C94,,17.9%,Max,172.4,P2,5.312,P2,-107.4,P2,-10.19,P2,-139.9,P2,3.489,P2,274.8,P8,371.4,P22
7530,C94,,17.9%,Min,-79.85,P3,-4.194,P3,-274.8,P8,-32.71,P6,-371.4,P22,-3.047,P3,107.6,P2,140.0,P2
7530,C94,,21.4%,Max,172.4,P2,5.312,P2,-103.9,P2,-10.19,P2,-180.1,P2,3.629,P2,270.0,P8,474.3,P22
7530,C94,,21.4%,Min,-79.85,P3,-4.194,P3,-270.0,P8,-32.71,P6,-474.3,P22,-3.610,P3,104.0,P2,180.1,P2
7530,C94,,25.0%,Max,172.4,P2,5.312,P2,-100.3,P2,-10.19,P2,-218.9,P2,3.768,P2,265.2,P8,575.3,P22
7530,C94,,25.0%,Min,-79.85,P3,-4.194,P3,-265.1,P8,-32.71,P6,-575.3,P22,-4.172,P3,100.5,P2,218.9,P2
7530,C94,,28.6%,Max,172.4,P2,5.312,P2,-96.77,P2,-10.19,P2,-256.4,P2,3.908,P2,260.3,P8,674.6,P8
7530,C94,,28.6%,Min,-79.85,P3,-4.194,P3,-260.3,P8,-32.71,P6,-674.6,P8,-4.735,P3,96.92,P2,256.4,P2
7530,C94,,28.6%,Max,132.5,P2,3.114,P2,-53.10,P2,-0.06887,P2,-262.1,P2,1.674,P2,136.5,P33,690.2,P8
7530,C94,,28.6%,Min,-62.65,P3,-2.825,P3,-136.5,P33,-6.563,P28,-690.2,P8,-1.361,P3,53.19,P2,262.1,P2
7530,C94,,32.1%,Max,132.5,P2,3.114,P2,-49.54,P2,-0.06887,P2,-281.6,P2,2.021,P2,131.7,P33,740.5,P8
7530,C94,,32.1%,Min,-62.65,P3,-2.825,P3,-131.7,P33,-6.563,P28,-740.5,P8,-1.817,P3,49.64,P2,281.6,P2
7530,C94,,35.7%,Max,132.5,P2,3.114,P2,-45.98,P2,-0.06887,P2,-299.8,P2,2.368,P2,126.9,P33,788.9,P8
7530,C94,,35.7%,Min,-62.65,P3,-2.825,P3,-126.9,P33,-6.563,P28,-788.9,P8,-2.273,P3,46.08,P2,299.8,P2
7530,C94,,39.3%,Max,132.5,P2,3.114,P2,-42.42,P2,-0.06887,P2,-316.6,P2,2.714,P2,122.1,P33,835.5,P8
7530,C94,,39.3%,Min,-62.65,P3,-2.825,P3,-122.1,P33,-6.563,P28,-835.5,P8,-2.729,P3,42.53,P2,316.6,P2
7530,C94,,42.9%,Max,132.5,P2,3.114,P2,-38.86,P2,-0.06887,P2,-332.1,P2,3.061,P2,117.3,P33,880.3,P8
7530,C94,,42.9%,Min,-62.65,P3,-2.825,P3,-117.3,P33,-6.563,P28,-880.3,P8,-3.184,P3,38.99,P2,332.1,P2
7530,C94,,42.9%,Max,95.39,P2,1.871,P2,-19.21,P60,1.232,P68,-334.6,P2,0.9864,P2,43.35,P33,887.5,P8
7530,C94,,42.9%,Min,-46.38,P3,-1.780,P3,-43.35,P33,-0.7405,P5,-887.5,P8,-0.7554,P3,19.22,P60,334.6,P2
7530,C94,,46.4%,Max,95.39,P2,1.871,P2,-15.65,P60,1.232,P68,-341.8,P2,1.291,P2,38.55,P33,902.4,P8
7530,C94,,46.4%,Min,-46.38,P3,-1.780,P3,-38.55,P33,-0.7405,P5,-902.4,P8,-1.094,P3,15.67,P60,341.8,P2
7530,C94,,50.0%,Max,95.39,P2,1.871,P2,-12.10,P60,1.232,P68,-347.7,P2,1.595,P2,33.74,P33,915.4,P8
7530,C94,,50.0%,Min,-46.38,P3,-1.780,P3,-33.74,P33,-0.7405,P5,-915.4,P8,-1.432,P3,12.11,P60,347.7,P2
7530,C94,,53.6%,Max,95.39,P2,1.871,P2,-8.536,P60,1.232,P68,-352.3,P2,1.899,P2,28.94,P33,926.6,P8
7530,C94,,53.6%,Min,-46.38,P3,-1.780,P3,-28.94,P33,-0.7405,P5,-926.6,P8,-1.771,P3,8.560,P60,352.3,P2
7530,C94,,57.1%,Max,95.39,P2,1.871,P2,-4.977,P60,1.232,P68,-355.5,P2,2.204,P2,24.13,P33,936.1,P8
7530,C94,,57.1%,Min,-46.38,P3,-1.780,P3,-24.13,P33,-0.7405,P5,-936.1,P8,-2.110,P3,5.018,P60,355.5,P2
7530,C94,,57.1%,Max,66.76,P4,1.418,P2,77.60,P25,15.98,P25,-354.2,P2,1.058,P4,77.60,P25,932.1,P8
7530,C94,,57.1%,Min,-34.45,P5,-1.581,P3,21.91,P3,4.750,P3,-932.1,P8,-1.023,P5,21.96,P3,354.2,P2
7530,C94,,60.7%,Max,66.76,P4,1.418,P2,82.40,P25,15.98,P25,-345.2,P2,1.128,P2,82.40,P25,902.0,P8
7530,C94,,60.7%,Min,-34.45,P5,-1.581,P3,25.46,P3,4.750,P3,-902.0,P8,-1.030,P3,25.51,P3,345.2,P2
7530,C94,,64.3%,Max,66.76,P4,1.418,P2,87.21,P25,15.98,P25,-334.8,P2,1.341,P2,87.21,P25,870.1,P8
7530,C94,,64.3%,Min,-34.45,P5,-1.581,P3,29.02,P3,4.750,P3,-870.1,P8,-1.181,P3,29.07,P3,334.8,P2
7530,C94,,67.9%,Max,66.76,P4,1.418,P2,92.01,P25,15.98,P25,-323.1,P2,1.554,P2,92.01,P25,836.4,P30
7530,C94,,67.9%,Min,-34.45,P5,-1.581,P3,32.58,P3,4.750,P3,-836.4,P30,-1.332,P3,32.62,P3,323.1,P2
7530,C94,,71.4%,Max,66.76,P4,1.418,P2,96.82,P25,15.98,P25,-310.1,P2,1.767,P2,96.82,P25,801.2,P31
7530,C94,,71.4%,Min,-34.45,P5,-1.581,P3,36.14,P3,4.750,P3,-801.2,P31,-1.484,P3,36.18,P3,310.1,P2
7530,C94,,71.4%,Max,45.94,P4,1.670,P4,193.7,P24,29.35,P25,-305.1,P2,1.308,P4,193.7,P24,787.0,P30
7530,C94,,71.4%,Min,-27.92,P5,-1.808,P5,67.45,P3,8.332,P3,-787.0,P30,-1.178,P5,67.47,P3,305.1,P2
7530,C94,,75.0%,Max,45.94,P4,1.670,P4,198.5,P24,29.35,P25,-278.9,P2,1.387,P4,198.5,P24,713.3,P31
7530,C94,,75.0%,Min,-27.92,P5,-1.808,P5,71.01,P3,8.332,P3,-713.3,P31,-1.205,P5,71.03,P3,278.9,P2
7530,C94,,78.6%,Max,45.94,P4,1.670,P4,203.3,P24,29.35,P25,-251.4,P2,1.519,P2,203.3,P24,637.9,P33
7530,C94,,78.6%,Min,-27.92,P5,-1.808,P5,74.57,P3,8.332,P3,-637.9,P33,-1.284,P3,74.59,P3,251.4,P2
7530,C94,,82.1%,Max,45.94,P4,1.670,P4,208.1,P24,29.35,P25,-222.5,P2,1.739,P2,208.1,P24,560.8,P33
7530,C94,,82.1%,Min,-27.92,P5,-1.808,P5,78.13,P3,8.332,P3,-560.8,P33,-1.453,P3,78.15,P3,222.5,P2
7530,C94,,85.7%,Max,45.94,P4,1.670,P4,212.9,P24,29.35,P25,-192.2,P2,1.960,P2,212.9,P24,481.9,P33
7530,C94,,85.7%,Min,-27.92,P5,-1.808,P5,81.68,P3,8.332,P3,-481.9,P33,-1.622,P3,81.70,P3,192.2,P2
7530,C94,,85.7%,Max,26.71,P4,4.383,P4,307.5,P25,34.49,P25,-182.7,P2,2.316,P4,307.5,P25,456.3,P33
7530,C94,,85.7%,Min,-19.83,P5,-4.519,P5,119.3,P3,10.49,P3,-456.3,P33,-2.066,P5,119.3,P3,182.8,P2
7530,C94,,89.3%,Max,26.71,P4,4.383,P4,312.3,P25,34.49,P25,-134.3,P2,2.934,P4,312.3,P25,339.6,P33
7530,C94,,89.3%,Min,-19.83,P5,-4.519,P5,122.8,P3,10.49,P3,-339.6,P33,-2.633,P5,122.9,P3,134.3,P2
7530,C94,,92.9%,Max,26.71,P4,4.383,P4,317.1,P25,34.49,P25,-84.44,P2,3.552,P4,317.1,P25,221.1,P33
7530,C94,,92.9%,Min,-19.83,P5,-4.519,P5,126.4,P3,10.49,P3,-221.1,P33,-3.199,P5,126.4,P3,84.50,P2
7530,C94,,96.4%,Max,26.71,P4,4.383,P4,321.9,P25,34.49,P25,-33.28,P2,4.170,P4,321.9,P25,100.8,P33
7530,C94,,96.4%,Min,-19.83,P5,-4.519,P5,129.9,P3,10.49,P3,-100.8,P33,-3.765,P5,130.0,P3,33.47,P2
7530,C94,5234,100.0%,Max,26.71,P4,4.383,P4,326.7,P25,34.49,P25,26.96,P24,4.787,P4,326.7,P25,26.96,P24
7530,C94,5234,100.0%,Min,-19.83,P5,-4.519,P5,133.5,P3,10.49,P3,5.077,P57,-4.332,P5,133.6,P3,5.131,P57
7531,C94,4880,0.0%,Max,30.47,P2,12.41,P4,-131.3,P55,30.08,P31,473.7,P33,10.70,P4,303.5,P25,473.7,P33
7531,C94,4880,0.0%,Min,-110.8,P3,-13.15,P5,-303.5,P25,9.103,P61,181.2,P60,-11.88,P5,131.4,P43,181.3,P60
7531,C94,,3.6%,Max,30.47,P2,12.41,P4,-127.6,P55,30.08,P31,357.5,P33,10.23,P4,298.5,P25,357.5,P33
7531,C94,,3.6%,Min,-110.8,P3,-13.15,P5,-298.5,P25,9.103,P61,128.1,P60,-11.12,P5,127.7,P43,128.2,P60
7531,C94,,7.1%,Max,30.47,P2,12.41,P4,-123.9,P55,30.08,P31,243.2,P33,9.760,P4,293.6,P25,243.2,P33
7531,C94,,7.1%,Min,-110.8,P3,-13.15,P5,-293.6,P25,9.103,P61,76.43,P60,-10.36,P5,124.1,P43,76.43,P60
7531,C94,,10.7%,Max,30.47,P2,12.41,P4,-120.3,P55,30.08,P31,133.3,P21,9.290,P4,288.6,P25,133.3,P21
7531,C94,,10.7%,Min,-110.8,P3,-13.15,P5,-288.6,P25,9.103,P61,26.19,P60,-9.605,P5,120.4,P43,26.45,P60
7531,C94,,14.3%,Max,30.47,P2,12.41,P4,-116.6,P55,30.08,P31,40.06,P57,8.820,P4,283.7,P25,40.18,P57
7531,C94,,14.3%,Min,-110.8,P3,-13.15,P5,-283.7,P25,9.103,P61,-22.64,P60,-8.848,P5,116.7,P43,0.9039,P50
7531,C94,,14.3%,Max,41.66,P2,2.677,P4,-96.28,P66,25.18,P30,19.17,P57,1.550,P2,228.7,P6,53.98,P12
7531,C94,,14.3%,Min,-87.49,P3,-3.813,P5,-228.7,P6,4.914,P57,-53.98,P12,-2.374,P3,96.28,P66,2.789,P4
7531,C94,,17.9%,Max,41.66,P2,2.677,P4,-92.61,P66,25.18,P30,-22.42,P57,2.081,P4,223.7,P6,137.3,P24
7531,C94,,17.9%,Min,-87.49,P3,-3.813,P5,-223.7,P6,4.914,P57,-137.3,P24,-2.463,P5,92.61,P66,22.42,P57
7531,C94,,21.4%,Max,41.66,P2,2.677,P4,-88.94,P66,25.18,P30,-62.59,P57,2.629,P4,218.8,P6,223.1,P25
7531,C94,,21.4%,Min,-87.49,P3,-3.813,P5,-218.8,P6,4.914,P57,-223.1,P25,-2.568,P5,88.94,P66,62.59,P57
7531,C94,,25.0%,Max,41.66,P2,2.677,P4,-85.28,P66,25.18,P30,-101.3,P57,3.176,P4,213.8,P6,307.1,P25
7531,C94,,25.0%,Min,-87.49,P3,-3.813,P5,-213.8,P6,4.914,P57,-307.1,P25,-2.674,P5,85.28,P66,101.3,P57
7531,C94,,28.6%,Max,41.66,P2,2.677,P4,-81.61,P66,25.18,P30,-138.6,P57,3.723,P4,208.9,P6,389.1,P25
7531,C94,,28.6%,Min,-87.49,P3,-3.813,P5,-208.9,P6,4.914,P57,-389.1,P25,-2.779,P5,81.61,P66,138.6,P57
7531,C94,,28.6%,Max,37.41,P2,1.030,P2,-54.34,P66,12.30,P18,-153.6,P57,0.5917,P4,131.4,P33,416.9,P25
7531,C94,,28.6%,Min,-72.76,P3,-1.563,P3,-131.4,P33,-0.8160,P57,-416.9,P25,-0.7455,P5,54.34,P66,153.6,P57
7531,C94,,32.1%,Max,37.41,P2,1.030,P2,-50.68,P66,12.30,P18,-179.3,P57,1.002,P4,126.4,P33,466.4,P25
7531,C94,,32.1%,Min,-72.76,P3,-1.563,P3,-126.4,P33,-0.8160,P57,-466.4,P25,-0.9479,P5,50.68,P66,179.3,P57
7531,C94,,35.7%,Max,37.41,P2,1.030,P2,-47.01,P66,12.30,P18,-202.8,P55,1.412,P4,121.5,P33,513.9,P25
7531,C94,,35.7%,Min,-72.76,P3,-1.563,P3,-121.5,P33,-0.8160,P57,-513.9,P25,-1.150,P5,47.01,P66,202.8,P55
7531,C94,,39.3%,Max,37.41,P2,1.030,P2,-43.35,P66,12.30,P18,-221.6,P55,1.822,P4,116.5,P33,559.5,P25
7531,C94,,39.3%,Min,-72.76,P3,-1.563,P3,-116.5,P33,-0.8160,P57,-559.5,P25,-1.353,P5,43.35,P66,221.6,P55
7531,C94,,42.9%,Max,37.41,P2,1.030,P2,-39.68,P66,12.30,P18,-238.3,P67,2.233,P4,111.6,P33,603.2,P25
7531,C94,,42.9%,Min,-72.76,P3,-1.563,P3,-111.6,P33,-0.8160,P57,-603.2,P25,-1.555,P5,39.68,P66,238.3,P67
7531,C94,,42.9%,Max,29.11,P2,0.5415,P2,-20.73,P58,4.263,P18,-242.5,P67,1.109,P4,54.89,P33,617.5,P25
7531,C94,,42.9%,Min,-58.06,P3,-0.7180,P3,-54.89,P33,-3.010,P57,-617.5,P25,-1.004,P5,20.73,P58,242.5,P67
7531,C94,,46.4%,Max,29.11,P2,0.5415,P2,-17.06,P58,4.263,P18,-249.9,P67,1.139,P4,49.94,P33,636.7,P25
7531,C94,,46.4%,Min,-58.06,P3,-0.7180,P3,-49.94,P33,-3.010,P57,-636.7,P25,-0.9655,P5,17.06,P58,249.9,P67
7531,C94,,50.0%,Max,29.11,P2,0.5415,P2,-13.39,P58,4.263,P18,-256.0,P67,1.169,P4,44.99,P33,653.9,P25
7531,C94,,50.0%,Min,-58.06,P3,-0.7180,P3,-44.99,P33,-3.010,P57,-653.9,P25,-0.9266,P5,13.39,P58,256.0,P67
7531,C94,,53.6%,Max,29.11,P2,0.5415,P2,-9.726,P58,4.263,P18,-260.5,P67,1.254,P2,40.04,P33,669.2,P25
7531,C94,,53.6%,Min,-58.06,P3,-0.7180,P3,-40.04,P33,-3.010,P57,-669.2,P25,-0.9435,P3,9.726,P58,260.5,P67
7531,C94,,57.1%,Max,29.11,P2,0.5415,P2,-6.060,P58,4.263,P18,-263.7,P67,1.410,P2,35.09,P33,682.5,P25
7531,C94,,57.1%,Min,-58.06,P3,-0.7180,P3,-35.09,P33,-3.010,P57,-682.5,P25,-1.031,P3,6.060,P58,263.7,P67
7531,C94,,57.1%,Max,19.89,P2,0.8434,P4,37.14,P24,-2.840,P66,-262.1,P66,1.482,P4,37.14,P24,683.5,P25
7531,C94,,57.1%,Min,-43.36,P3,-0.6972,P5,6.869,P57,-10.76,P32,-683.5,P25,-1.178,P5,6.872,P57,262.1,P66
7531,C94,,60.7%,Max,19.89,P2,0.8434,P4,42.09,P24,-2.840,P66,-256.0,P66,1.226,P4,42.09,P24,668.4,P25
7531,C94,,60.7%,Min,-43.36,P3,-0.6972,P5,10.54,P57,-10.76,P32,-668.4,P25,-0.9790,P5,10.54,P57,256.0,P66
7531,C94,,64.3%,Max,19.89,P2,0.8434,P4,47.04,P24,-2.840,P66,-248.4,P66,0.9707,P4,47.04,P24,651.3,P25
7531,C94,,64.3%,Min,-43.36,P3,-0.6972,P5,14.20,P57,-10.76,P32,-651.3,P25,-0.7806,P5,14.20,P57,248.4,P66
7531,C94,,67.9%,Max,19.89,P2,0.8434,P4,51.98,P24,-2.840,P66,-239.4,P66,0.8375,P2,51.98,P24,632.3,P25
7531,C94,,67.9%,Min,-43.36,P3,-0.6972,P5,17.87,P57,-10.76,P32,-632.3,P25,-0.7043,P3,17.87,P57,239.4,P66
7531,C94,,71.4%,Max,19.89,P2,0.8434,P4,56.93,P24,-2.840,P66,-229.0,P66,0.7413,P2,56.93,P24,611.4,P25
7531,C94,,71.4%,Min,-43.36,P3,-0.6972,P5,21.53,P57,-10.76,P32,-611.4,P25,-0.6651,P3,21.54,P57,229.0,P66
7531,C94,,71.4%,Max,11.12,P2,2.437,P4,128.0,P25,-5.107,P57,-222.0,P66,2.109,P4,128.0,P25,599.2,P25
7531,C94,,71.4%,Min,-30.41,P3,-1.635,P5,49.08,P67,-22.43,P30,-599.2,P25,-1.595,P5,49.08,P67,222.0,P66
7531,C94,,75.0%,Max,11.12,P2,2.437,P4,133.0,P25,-5.107,P57,-202.2,P66,1.843,P4,133.0,P25,548.4,P25
7531,C94,,75.0%,Min,-30.41,P3,-1.635,P5,52.75,P67,-22.43,P30,-548.4,P25,-1.642,P5,52.75,P67,202.2,P66
7531,C94,,78.6%,Max,11.12,P2,2.437,P4,137.9,P25,-5.107,P57,-180.9,P66,1.577,P4,137.9,P25,495.7,P25
7531,C94,,78.6%,Min,-30.41,P3,-1.635,P5,56.41,P67,-22.43,P30,-495.7,P25,-1.689,P5,56.41,P67,180.9,P66
7531,C94,,82.1%,Max,11.12,P2,2.437,P4,142.9,P25,-5.107,P57,-158.2,P66,1.311,P4,142.9,P25,441.0,P25
7531,C94,,82.1%,Min,-30.41,P3,-1.635,P5,60.08,P67,-22.43,P30,-441.0,P25,-1.736,P5,60.08,P67,158.2,P66
7531,C94,,85.7%,Max,11.12,P2,2.437,P4,147.8,P25,-5.107,P57,-134.1,P66,1.511,P92,147.8,P25,384.4,P25
7531,C94,,85.7%,Min,-30.41,P3,-1.635,P5,63.74,P67,-22.43,P30,-384.4,P25,-1.966,P79,63.74,P67,134.1,P66
7531,C94,,85.7%,Max,5.393,P2,4.296,P4,220.0,P25,-4.056,P57,-121.8,P66,2.928,P4,220.0,P25,358.6,P25
7531,C94,,85.7%,Min,-14.25,P3,-4.149,P5,80.36,P66,-36.48,P30,-358.6,P25,-2.537,P5,80.36,P66,121.8,P66
7531,C94,,89.3%,Max,5.393,P2,4.296,P4,225.0,P25,-4.056,P57,-89.82,P66,3.193,P4,225.0,P25,272.0,P25
7531,C94,,89.3%,Min,-14.25,P3,-4.149,P5,84.02,P66,-36.48,P30,-272.0,P25,-2.859,P5,84.02,P66,89.83,P66
7531,C94,,92.9%,Max,5.393,P2,4.296,P4,229.9,P25,-4.056,P57,-56.39,P66,3.458,P4,229.9,P25,183.4,P25
7531,C94,,92.9%,Min,-14.25,P3,-4.149,P5,87.69,P66,-36.48,P30,-183.4,P25,-3.182,P5,87.69,P66,56.39,P66
7531,C94,,96.4%,Max,5.393,P2,4.296,P4,234.9,P25,-4.056,P57,-21.53,P66,3.723,P4,234.9,P25,92.88,P25
7531,C94,,96.4%,Min,-14.25,P3,-4.149,P5,91.36,P66,-36.48,P30,-92.88,P25,-3.504,P5,91.36,P66,21.53,P66
7531,C94,5235,100.0%,Max,5.393,P2,4.296,P4,239.8,P25,-4.056,P57,14.86,P18,3.988,P4,239.8,P25,14.86,P18
7531,C94,5235,100.0%,Min,-14.25,P3,-4.149,P5,95.02,P66,-36.48,P30,-9.367,P57,-3.827,P5,95.02,P66,0.2569,P6
7534,C94,4834,0.0%,Max,146.7,P57,20.87,P4,-192.6,P61,18.91,P6,1286.,P33,16.95,P4,503.5,P33,1286.,P33
7534,C94,4834,0.0%,Min,-229.3,P3,-23.59,P5,-503.5,P33,2.266,P3,322.9,P61,-18.55,P5,193.1,P61,323.0,P61
7534,C94,,3.6%,Max,146.7,P57,20.87,P4,-189.0,P61,18.91,P6,1091.,P33,17.30,P4,498.6,P33,1091.,P33
7534,C94,,3.6%,Min,-229.3,P3,-23.59,P5,-498.6,P33,2.266,P3,248.7,P61,-17.85,P5,189.4,P61,248.8,P61
7534,C94,,7.1%,Max,146.7,P57,20.87,P4,-185.3,P61,18.91,P6,898.4,P33,17.66,P4,493.6,P33,898.4,P33
7534,C94,,7.1%,Min,-229.3,P3,-23.59,P5,-493.6,P33,2.266,P3,176.0,P61,-17.15,P5,185.8,P61,176.0,P61
7534,C94,,10.7%,Max,146.7,P57,20.87,P4,-181.7,P61,18.91,P6,717.1,P21,18.01,P4,488.7,P33,717.1,P21
7534,C94,,10.7%,Min,-229.3,P3,-23.59,P5,-488.7,P33,2.266,P3,104.6,P61,-16.45,P5,182.1,P61,104.8,P61
7534,C94,,14.3%,Max,146.7,P57,20.87,P4,-178.0,P61,18.91,P6,542.1,P21,18.37,P4,483.8,P33,542.1,P21
7534,C94,,14.3%,Min,-229.3,P3,-23.59,P5,-483.8,P33,2.266,P3,34.71,P61,-15.75,P5,178.5,P61,36.63,P61
7534,C94,,14.3%,Max,81.31,P2,3.483,P2,-152.6,P61,22.84,P6,497.9,P21,2.438,P2,413.1,P33,497.9,P21
7534,C94,,14.3%,Min,-153.6,P3,-2.841,P3,-413.1,P33,4.260,P3,17.52,P61,-1.698,P3,152.6,P61,17.52,P61
7534,C94,,17.9%,Max,81.31,P2,3.483,P2,-148.9,P61,22.84,P6,349.6,P21,2.560,P2,408.1,P33,349.6,P21
7534,C94,,17.9%,Min,-153.6,P3,-2.841,P3,-408.1,P33,4.260,P3,-41.10,P61,-2.069,P3,148.9,P61,0.2860,P41
7534,C94,,21.4%,Max,81.31,P2,3.483,P2,-145.3,P61,22.84,P6,203.3,P21,2.681,P2,403.2,P33,203.3,P21
7534,C94,,21.4%,Min,-153.6,P3,-2.841,P3,-403.2,P33,4.260,P3,-98.30,P61,-2.441,P3,145.3,P61,0.3562,P47
7534,C94,,25.0%,Max,81.31,P2,3.483,P2,-141.6,P61,22.84,P6,118.3,P57,2.803,P2,398.3,P33,165.5,P13
7534,C94,,25.0%,Min,-153.6,P3,-2.841,P3,-398.3,P33,4.260,P3,-165.5,P13,-2.812,P3,141.6,P61,0.7842,P93
7534,C94,,28.6%,Max,81.31,P2,3.483,P2,-138.0,P61,22.84,P6,44.92,P57,2.925,P2,393.3,P33,292.9,P13
7534,C94,,28.6%,Min,-153.6,P3,-2.841,P3,-393.3,P33,4.260,P3,-292.9,P13,-3.184,P3,138.0,P61,0.9153,P69
7534,C94,,28.6%,Max,62.70,P2,2.020,P2,-79.70,P61,3.964,P2,28.10,P57,1.608,P4,234.6,P33,319.2,P13
7534,C94,,28.6%,Min,-110.3,P3,-1.265,P3,-234.6,P33,-1.973,P3,-319.2,P13,-0.7926,P5,79.70,P61,4.403,P44
7534,C94,,32.1%,Max,62.70,P2,2.020,P2,-76.04,P61,3.964,P2,-19.52,P57,1.489,P4,229.6,P33,393.6,P25
7534,C94,,32.1%,Min,-110.3,P3,-1.265,P3,-229.6,P33,-1.973,P3,-393.6,P25,-0.9671,P5,76.04,P61,19.52,P57
7534,C94,,35.7%,Max,62.70,P2,2.020,P2,-72.38,P61,3.964,P2,-65.73,P57,1.575,P2,224.7,P33,473.4,P25
7534,C94,,35.7%,Min,-110.3,P3,-1.265,P3,-224.7,P33,-1.973,P3,-473.4,P25,-1.347,P3,72.38,P61,65.73,P57
7534,C94,,39.3%,Max,62.70,P2,2.020,P2,-68.71,P61,3.964,P2,-110.5,P57,1.707,P2,219.7,P33,551.3,P25
7534,C94,,39.3%,Min,-110.3,P3,-1.265,P3,-219.7,P33,-1.973,P3,-551.3,P25,-1.772,P3,68.72,P61,110.5,P57
7534,C94,,42.9%,Max,62.70,P2,2.020,P2,-65.05,P61,3.964,P2,-153.9,P57,1.839,P2,214.8,P33,627.3,P25
7534,C94,,42.9%,Min,-110.3,P3,-1.265,P3,-214.8,P33,-1.973,P3,-627.3,P25,-2.198,P3,65.06,P61,153.9,P57
7534,C94,,42.9%,Max,46.47,P2,1.490,P4,-26.64,P61,1.652,P4,-165.0,P57,1.758,P4,110.1,P33,645.1,P25
7534,C94,,42.9%,Min,-81.06,P3,-0.7369,P5,-110.1,P33,-1.264,P83,-645.1,P25,-0.9738,P5,26.65,P61,165.0,P57
7534,C94,,46.4%,Max,46.47,P2,1.490,P4,-22.98,P61,1.652,P4,-191.3,P57,1.458,P4,105.2,P33,679.1,P25
7534,C94,,46.4%,Min,-81.06,P3,-0.7369,P5,-105.2,P33,-1.264,P83,-679.1,P25,-0.9665,P5,22.99,P61,191.3,P57
7534,C94,,50.0%,Max,46.47,P2,1.490,P4,-19.32,P61,1.652,P4,-216.1,P57,1.158,P4,100.3,P33,711.1,P25
7534,C94,,50.0%,Min,-81.06,P3,-0.7369,P5,-100.3,P33,-1.264,P83,-711.1,P25,-0.9593,P5,19.33,P61,216.1,P57
7534,C94,,53.6%,Max,46.47,P2,1.490,P4,-15.66,P61,1.652,P4,-239.5,P57,1.135,P2,95.31,P33,741.2,P25
7534,C94,,53.6%,Min,-81.06,P3,-0.7369,P5,-95.31,P33,-1.264,P83,-741.2,P25,-1.229,P3,15.67,P61,239.5,P57
7534,C94,,57.1%,Max,46.47,P2,1.490,P4,-12.00,P61,1.652,P4,-261.5,P57,1.162,P2,90.37,P33,769.3,P25
7534,C94,,57.1%,Min,-81.06,P3,-0.7369,P5,-90.37,P33,-1.264,P83,-769.3,P25,-1.549,P3,12.01,P61,261.5,P57
7534,C94,,57.1%,Max,30.23,P2,1.608,P4,58.76,P25,-0.1385,P2,-264.8,P57,1.787,P4,58.76,P25,769.5,P25
7534,C94,,57.1%,Min,-59.75,P3,-0.9238,P5,-4.012,P57,-7.248,P8,-769.5,P25,-1.118,P5,0.2185,P44,264.8,P57
7534,C94,,60.7%,Max,30.23,P2,1.608,P4,63.70,P25,-0.1385,P2,-265.6,P57,1.486,P4,63.70,P25,745.7,P25
7534,C94,,60.7%,Min,-59.75,P3,-0.9238,P5,-0.3519,P57,-7.248,P8,-745.7,P25,-1.083,P5,0.03923,P56,265.6,P57
7534,C94,,64.3%,Max,30.23,P2,1.608,P4,68.64,P25,-0.1385,P2,-265.0,P57,1.186,P4,68.65,P25,720.0,P25
7534,C94,,64.3%,Min,-59.75,P3,-0.9238,P5,3.309,P57,-7.248,P8,-720.0,P25,-1.049,P5,3.309,P57,265.0,P57
7534,C94,,67.9%,Max,30.23,P2,1.608,P4,73.58,P25,-0.1385,P2,-263.0,P57,0.8852,P4,73.59,P25,692.3,P25
7534,C94,,67.9%,Min,-59.75,P3,-0.9238,P5,6.969,P57,-7.248,P8,-692.3,P25,-1.015,P5,6.969,P57,263.0,P57
7534,C94,,71.4%,Max,30.23,P2,1.608,P4,78.53,P25,-0.1385,P2,-259.6,P57,0.7570,P2,78.53,P25,662.8,P24
7534,C94,,71.4%,Min,-59.75,P3,-0.9238,P5,10.63,P57,-7.248,P8,-662.8,P24,-1.152,P3,10.63,P57,259.6,P57
7534,C94,,71.4%,Max,13.34,P2,2.080,P4,199.8,P24,-0.5261,P2,-255.6,P57,1.825,P4,199.8,P24,646.0,P25
7534,C94,,71.4%,Min,-43.49,P3,-1.401,P5,56.12,P57,-12.86,P25,-646.0,P25,-1.275,P5,56.12,P57,255.6,P57
7534,C94,,75.0%,Max,13.34,P2,2.080,P4,204.8,P24,-0.5261,P2,-231.9,P69,1.635,P4,204.8,P24,567.5,P25
7534,C94,,75.0%,Min,-43.49,P3,-1.401,P5,59.78,P57,-12.86,P25,-567.5,P25,-1.348,P5,59.78,P57,231.9,P69
7534,C94,,78.6%,Max,13.34,P2,2.080,P4,209.7,P24,-0.5261,P2,-204.7,P69,1.444,P4,209.7,P24,487.7,P6
7534,C94,,78.6%,Min,-43.49,P3,-1.401,P5,63.44,P57,-12.86,P25,-487.7,P6,-1.422,P5,63.44,P57,204.7,P69
7534,C94,,82.1%,Max,13.34,P2,2.080,P4,214.7,P24,-0.5261,P2,-169.4,P82,1.254,P4,214.7,P24,409.8,P6
7534,C94,,82.1%,Min,-43.49,P3,-1.401,P5,67.10,P57,-12.86,P25,-409.8,P6,-1.496,P5,67.10,P57,169.4,P82
7534,C94,,85.7%,Max,13.34,P2,2.080,P4,219.6,P24,-0.5261,P2,-128.3,P84,1.064,P4,219.6,P24,330.3,P33
7534,C94,,85.7%,Min,-43.49,P3,-1.401,P5,70.76,P57,-12.86,P25,-330.3,P33,-1.569,P5,70.76,P57,128.3,P84
7534,C94,,85.7%,Max,-4.161,P2,4.626,P4,323.7,P25,-1.870,P2,-112.5,P84,2.783,P4,323.7,P25,299.1,P33
7534,C94,,85.7%,Min,-36.63,P25,-4.021,P5,111.9,P57,-15.98,P23,-299.1,P33,-2.624,P5,111.9,P57,112.5,P84
7534,C94,,89.3%,Max,-4.161,P2,4.626,P4,328.6,P25,-1.870,P2,-53.04,P4,3.004,P4,328.6,P25,179.3,P33
7534,C94,,89.3%,Min,-36.63,P25,-4.021,P5,115.5,P57,-15.98,P23,-179.3,P33,-3.080,P5,115.5,P57,53.13,P4
7534,C94,,92.9%,Max,-4.161,P2,4.626,P4,333.6,P25,-1.870,P2,17.60,P4,3.224,P4,333.6,P25,65.02,P21
7534,C94,,92.9%,Min,-36.63,P25,-4.021,P5,119.2,P57,-15.98,P23,-65.02,P21,-3.536,P5,119.2,P57,0.1755,P83
7534,C94,,96.4%,Max,-4.161,P2,4.626,P4,338.5,P25,-1.870,P2,99.88,P12,3.445,P4,338.5,P25,99.88,P12
7534,C94,,96.4%,Min,-36.63,P25,-4.021,P5,122.9,P57,-15.98,P23,-8.883,P57,-3.992,P5,122.9,P57,1.216,P45
7534,C94,4807,100.0%,Max,-4.161,P2,4.626,P4,343.5,P25,-1.870,P2,232.4,P24,3.666,P4,343.5,P25,232.4,P24
7534,C94,4807,100.0%,Min,-36.63,P25,-4.021,P5,126.5,P57,-15.98,P23,39.60,P57,-4.447,P5,126.5,P57,39.60,P57
7535,C94,7595,0.0%,Max,87.91,P2,2.866,P2,-5.699,P2,3.537,P2,355.1,P2,2.254,P2,170.6,P3,355.1,P2
7535,C94,7595,0.0%,Min,-72.68,P3,-6.868,P3,-170.4,P3,-0.5995,P3,-92.51,P3,-5.675,P3,6.379,P2,10.32,P5
7535,C94,,8.3%,Max,87.91,P2,2.866,P2,-3.319,P2,3.537,P2,283.9,P2,3.189,P2,168.2,P3,283.9,P2
7535,C94,,8.3%,Min,-72.68,P3,-6.868,P3,-168.0,P3,-0.5995,P3,-94.56,P3,-4.924,P3,4.385,P2,24.57,P5
7535,C94,,16.7%,Max,87.91,P2,2.866,P2,-0.9395,P2,3.537,P2,213.8,P2,4.123,P2,165.8,P3,213.8,P2
7535,C94,,16.7%,Min,-72.68,P3,-6.868,P3,-165.7,P3,-0.5995,P3,-95.61,P3,-4.172,P3,3.016,P2,28.18,P57
7535,C94,,25.0%,Max,87.91,P2,2.866,P2,1.440,P2,3.537,P2,144.6,P2,5.057,P2,163.4,P3,144.7,P2
7535,C94,,25.0%,Min,-72.68,P3,-6.868,P3,-163.3,P3,-0.5995,P3,-95.65,P3,-3.420,P3,3.208,P2,5.044,P57
7535,C94,,33.3%,Max,87.91,P2,2.866,P2,3.820,P2,3.537,P2,76.49,P2,5.992,P2,161.0,P3,94.73,P3
7535,C94,,33.3%,Min,-72.68,P3,-6.868,P3,-160.9,P3,-0.5995,P3,-94.69,P3,-2.669,P3,4.776,P2,0.3392,P41
7535,C94,,33.3%,Max,35.27,P2,1.881,P83,52.39,P2,-1.790,P2,45.48,P2,1.660,P83,112.9,P3,86.86,P3
7535,C94,,33.3%,Min,-36.63,P3,-5.147,P3,-112.8,P3,-5.477,P22,-86.75,P3,-4.477,P3,14.25,P57,6.444,P58
7535,C94,,41.7%,Max,35.27,P2,1.881,P83,54.77,P2,-1.790,P2,35.17,P2,1.984,P2,110.5,P3,100.9,P3
7535,C94,,41.7%,Min,-36.63,P3,-5.147,P3,-110.4,P3,-5.477,P22,-100.9,P3,-3.634,P3,11.98,P57,11.04,P4
7535,C94,,50.0%,Max,35.27,P2,1.881,P83,57.15,P2,-1.790,P2,25.85,P2,2.722,P2,108.1,P3,114.0,P3
7535,C94,,50.0%,Min,-36.63,P3,-5.147,P3,-108.0,P3,-5.477,P22,-114.0,P3,-2.791,P3,9.747,P57,2.485,P4
7535,C94,,58.3%,Max,35.27,P2,1.881,P83,59.53,P2,-1.790,P2,17.54,P2,3.460,P2,105.8,P3,126.1,P3
7535,C94,,58.3%,Min,-36.63,P3,-5.147,P3,-105.6,P3,-5.477,P22,-126.1,P3,-1.947,P3,7.611,P57,10.36,P4
7535,C94,,66.7%,Max,35.27,P2,1.881,P83,61.91,P2,-1.790,P2,10.23,P2,4.210,P7,103.4,P3,137.2,P3
7535,C94,,66.7%,Min,-36.63,P3,-5.147,P3,-103.2,P3,-5.477,P22,-137.2,P3,-1.510,P83,5.671,P57,11.06,P2
7535,C94,,66.7%,Max,62.88,P2,2.006,P83,112.0,P2,2.518,P24,34.95,P2,1.692,P83,112.0,P2,151.8,P3
7535,C94,,66.7%,Min,-98.49,P3,-8.663,P7,-55.37,P3,-0.3228,P3,-151.7,P3,-6.735,P7,6.532,P82,1.374,P4
7535,C94,,75.0%,Max,62.88,P2,2.006,P83,114.4,P2,2.518,P24,82.54,P2,2.562,P2,114.4,P2,174.5,P3
7535,C94,,75.0%,Min,-98.49,P3,-8.663,P7,-52.99,P3,-0.3228,P3,-174.4,P3,-4.975,P3,8.833,P82,16.67,P81
7535,C94,,83.3%,Max,62.88,P2,2.006,P83,116.7,P2,2.518,P24,131.1,P2,4.223,P2,116.7,P2,196.2,P3
7535,C94,,83.3%,Min,-98.49,P3,-8.663,P7,-50.61,P3,-0.3228,P3,-196.2,P3,-3.687,P3,11.17,P82,0.4445,P81
7535,C94,,91.7%,Max,62.88,P2,2.006,P83,119.1,P2,2.518,P24,180.7,P2,5.883,P2,119.1,P2,216.9,P3
7535,C94,,91.7%,Min,-98.49,P3,-8.663,P7,-48.23,P3,-0.3228,P3,-216.9,P3,-2.398,P3,13.52,P82,2.113,P44
7535,C94,4884,100.0%,Max,62.88,P2,2.006,P83,121.5,P2,2.518,P24,231.3,P2,7.864,P7,121.5,P2,236.6,P3
7535,C94,4884,100.0%,Min,-98.49,P3,-8.663,P7,-45.85,P3,-0.3228,P3,-236.6,P3,-1.689,P83,15.88,P82,2.270,P69
7536,C94,7592,0.0%,Max,237.8,P2,1.542,P4,-40.59,P2,9.770,P33,432.0,P2,1.495,P4,215.1,P22,432.0,P2
7536,C94,7592,0.0%,Min,-149.8,P3,-3.735,P5,-215.1,P22,1.748,P3,-63.20,P3,-3.704,P5,40.60,P2,49.47,P5
7536,C94,,6.3%,Max,237.8,P2,1.542,P4,-38.38,P2,9.770,P33,361.5,P2,1.674,P4,212.1,P22,361.5,P2
7536,C94,,6.3%,Min,-149.8,P3,-3.735,P5,-212.1,P22,1.748,P3,-78.68,P3,-3.023,P5,38.39,P2,21.55,P5
7536,C94,,12.5%,Max,237.8,P2,1.542,P4,-36.17,P2,9.770,P33,291.8,P2,1.852,P4,209.1,P22,291.8,P2
7536,C94,,12.5%,Min,-149.8,P3,-3.735,P5,-209.1,P22,1.748,P3,-93.29,P3,-2.343,P5,36.18,P2,6.245,P5
7536,C94,,18.8%,Max,237.8,P2,1.542,P4,-33.96,P2,9.770,P33,223.1,P2,2.031,P4,206.1,P22,223.1,P2
7536,C94,,18.8%,Min,-149.8,P3,-3.735,P5,-206.1,P22,1.748,P3,-107.0,P3,-1.663,P5,33.97,P2,31.15,P57
7536,C94,,25.0%,Max,237.8,P2,1.542,P4,-31.75,P2,9.770,P33,155.1,P2,2.210,P4,203.1,P22,155.2,P2
7536,C94,,25.0%,Min,-149.8,P3,-3.735,P5,-203.1,P22,1.748,P3,-119.9,P3,-0.9829,P5,31.76,P2,1.587,P57
7536,C94,,25.0%,Max,131.5,P2,2.535,P2,16.34,P2,8.601,P33,119.9,P2,2.079,P2,128.7,P3,124.1,P3
7536,C94,,25.0%,Min,-102.0,P3,-3.060,P3,-128.7,P3,2.298,P3,-124.1,P3,-2.594,P3,16.54,P2,0.6711,P73
7536,C94,,31.2%,Max,131.5,P2,2.535,P2,18.55,P2,8.601,P33,70.19,P2,2.110,P2,126.5,P3,117.5,P3
7536,C94,,31.2%,Min,-102.0,P3,-3.060,P3,-126.5,P3,2.298,P3,-117.5,P3,-2.419,P3,14.77,P4,4.466,P60
7536,C94,,37.5%,Max,131.5,P2,2.535,P2,20.77,P2,8.601,P33,21.34,P2,2.141,P2,124.3,P3,110.1,P3
7536,C94,,37.5%,Min,-102.0,P3,-3.060,P3,-124.3,P3,2.298,P3,-110.0,P3,-2.244,P3,12.59,P4,7.929,P4
7536,C94,,43.7%,Max,131.5,P2,2.535,P2,22.98,P2,8.601,P33,-26.65,P2,2.171,P2,122.1,P3,134.9,P33
7536,C94,,43.7%,Min,-102.0,P3,-3.060,P3,-122.1,P3,2.298,P3,-134.9,P33,-2.069,P3,10.42,P4,26.73,P2
7536,C94,,50.0%,Max,131.5,P2,2.535,P2,25.19,P2,8.601,P33,-66.26,P60,2.202,P2,119.9,P3,169.6,P31
7536,C94,,50.0%,Min,-102.0,P3,-3.060,P3,-119.8,P3,2.298,P3,-169.6,P31,-1.895,P3,8.279,P4,66.28,P60
7536,C94,,50.0%,Max,63.33,P2,3.841,P2,89.24,P2,-3.878,P2,-71.15,P81,2.927,P2,89.32,P2,179.1,P30
7536,C94,,50.0%,Min,-76.20,P3,-3.894,P3,-57.33,P3,-11.73,P6,-179.1,P30,-3.041,P3,3.179,P62,71.18,P81
7536,C94,,56.2%,Max,63.33,P2,3.841,P2,91.45,P2,-3.878,P2,-45.20,P2,2.960,P2,91.53,P2,163.4,P22
7536,C94,,56.2%,Min,-76.20,P3,-3.894,P3,-55.12,P3,-11.73,P6,-163.4,P22,-3.054,P3,3.878,P58,45.30,P2
7536,C94,,62.5%,Max,63.33,P2,3.841,P2,93.66,P2,-3.878,P2,-9.283,P2,2.994,P2,93.74,P2,146.5,P22
7536,C94,,62.5%,Min,-76.20,P3,-3.894,P3,-52.91,P3,-11.73,P6,-146.5,P22,-3.067,P3,5.420,P58,9.754,P2
7536,C94,,68.7%,Max,63.33,P2,3.841,P2,95.88,P2,-3.878,P2,27.51,P2,3.027,P2,95.95,P2,159.3,P3
7536,C94,,68.7%,Min,-76.20,P3,-3.894,P3,-50.70,P3,-11.73,P6,-159.2,P3,-3.080,P3,7.314,P58,15.33,P4
7536,C94,,75.0%,Max,63.33,P2,3.841,P2,98.09,P2,-3.878,P2,65.16,P2,3.061,P2,98.16,P2,178.4,P3
7536,C94,,75.0%,Min,-76.20,P3,-3.894,P3,-48.49,P3,-11.73,P6,-178.3,P3,-3.093,P3,9.349,P58,9.561,P4
7536,C94,,75.0%,Max,29.91,P4,7.485,P61,159.1,P33,-0.7982,P2,91.12,P2,5.738,P2,159.1,P33,182.2,P3
7536,C94,,75.0%,Min,-86.96,P5,-6.654,P3,-1.257,P3,-7.560,P31,-182.1,P3,-4.938,P3,6.772,P3,23.69,P57
7536,C94,,81.3%,Max,29.91,P4,7.485,P61,162.1,P33,-0.7982,P2,148.9,P2,5.678,P2,162.1,P33,182.2,P3
7536,C94,,81.3%,Min,-86.96,P5,-6.654,P3,0.9544,P3,-7.560,P31,-182.1,P3,-5.181,P3,6.722,P3,1.395,P56
7536,C94,,87.5%,Max,29.91,P4,7.485,P61,165.1,P33,-0.7982,P2,207.5,P2,5.619,P2,165.1,P33,207.6,P2
7536,C94,,87.5%,Min,-86.96,P5,-6.654,P3,3.166,P3,-7.560,P31,-181.3,P3,-5.424,P3,7.369,P3,0.6635,P43
7536,C94,,93.8%,Max,29.91,P4,7.485,P61,168.1,P33,-0.7982,P2,267.0,P2,5.638,P4,168.1,P33,267.0,P2
7536,C94,,93.8%,Min,-86.96,P5,-6.654,P3,5.378,P3,-7.560,P31,-179.6,P3,-5.746,P5,8.556,P3,3.051,P82
7536,C94,4885,100.0%,Max,29.91,P4,7.485,P61,171.1,P33,-0.7982,P2,327.3,P2,5.690,P4,171.1,P33,327.4,P2
7536,C94,4885,100.0%,Min,-86.96,P5,-6.654,P3,7.590,P3,-7.560,P31,-177.1,P3,-6.202,P61,10.09,P3,19.74,P58
7537,C94,7595,0.0%,Max,556.3,P2,20.64,P2,-25.03,P4,68.75,P22,358.8,P4,23.00,P2,161.1,P8,359.0,P4
7537,C94,7595,0.0%,Min,-274.8,P3,-25.72,P3,-161.1,P8,25.85,P81,-87.68,P5,-28.62,P3,26.50,P4,69.78,P3
7537,C94,,6.3%,Max,556.3,P2,20.64,P2,-21.15,P4,68.75,P22,298.2,P4,20.82,P2,155.9,P8,298.3,P4
7537,C94,,6.3%,Min,-274.8,P3,-25.72,P3,-155.9,P8,25.85,P81,-97.26,P5,-24.35,P3,22.87,P4,48.17,P81
7537,C94,,12.5%,Max,556.3,P2,20.64,P2,-17.27,P4,68.75,P22,239.1,P4,18.65,P2,150.6,P8,239.3,P4
7537,C94,,12.5%,Min,-274.8,P3,-25.72,P3,-150.6,P8,25.85,P81,-105.2,P5,-20.09,P3,19.33,P4,23.89,P81
7537,C94,,18.8%,Max,556.3,P2,20.64,P2,-13.39,P4,68.75,P22,181.6,P4,16.48,P2,145.4,P8,181.8,P4
7537,C94,,18.8%,Min,-274.8,P3,-25.72,P3,-145.4,P8,25.85,P81,-111.6,P5,-15.82,P3,15.96,P4,2.733,P81
7537,C94,,25.0%,Max,556.3,P2,20.64,P2,-9.506,P4,68.75,P22,125.8,P4,14.30,P2,140.2,P8,126.0,P4
7537,C94,,25.0%,Min,-274.8,P3,-25.72,P3,-140.1,P8,25.85,P81,-116.4,P5,-11.55,P3,12.88,P4,1.511,P19
7537,C94,,25.0%,Max,570.7,P2,1.926,P2,19.89,P4,30.59,P33,112.2,P4,1.687,P2,106.4,P5,120.7,P5
7537,C94,,25.0%,Min,-253.3,P3,-1.864,P3,-106.4,P5,11.22,P3,-120.7,P5,-2.358,P3,13.37,P2,0.6029,P51
7537,C94,,31.3%,Max,570.7,P2,1.926,P2,23.77,P4,30.59,P33,69.66,P4,1.665,P2,102.5,P5,112.3,P5
7537,C94,,31.3%,Min,-253.3,P3,-1.864,P3,-102.5,P5,11.22,P3,-112.3,P5,-2.362,P3,17.22,P2,2.321,P63
7537,C94,,37.5%,Max,570.7,P2,1.926,P2,27.66,P4,30.59,P33,28.76,P4,1.643,P2,98.64,P5,102.2,P5
7537,C94,,37.5%,Min,-253.3,P3,-1.864,P3,-98.63,P5,11.22,P3,-102.2,P5,-2.366,P3,19.18,P81,12.80,P60
7537,C94,,43.8%,Max,570.7,P2,1.926,P2,31.54,P4,30.59,P33,-10.54,P4,1.622,P2,94.76,P5,102.0,P6
7537,C94,,43.8%,Min,-253.3,P3,-1.864,P3,-94.75,P5,11.22,P3,-102.0,P6,-2.370,P3,15.30,P81,10.60,P4
7537,C94,,50.0%,Max,570.7,P2,1.926,P2,35.42,P4,30.59,P33,-44.78,P58,1.600,P2,90.88,P5,123.2,P33
7537,C94,,50.0%,Min,-253.3,P3,-1.864,P3,-90.87,P5,11.22,P3,-123.2,P33,-2.375,P3,11.43,P81,44.78,P58
7537,C94,,50.0%,Max,605.6,P2,1.747,P2,78.40,P4,-11.67,P57,-45.86,P58,1.136,P4,78.41,P4,123.0,P33
7537,C94,,50.0%,Min,-253.0,P3,-1.770,P3,-51.54,P5,-30.91,P24,-123.0,P33,-1.850,P5,0.6415,P63,45.86,P58
7537,C94,,56.2%,Max,605.6,P2,1.747,P2,82.28,P4,-11.67,P57,-23.66,P4,1.437,P2,82.29,P4,107.5,P31
7537,C94,,56.2%,Min,-253.0,P3,-1.770,P3,-47.66,P5,-30.91,P24,-107.5,P31,-2.141,P3,1.056,P84,23.69,P4
7537,C94,,62.5%,Max,605.6,P2,1.747,P2,86.16,P4,-11.67,P57,6.546,P4,1.822,P2,86.17,P4,104.0,P5
7537,C94,,62.5%,Min,-253.0,P3,-1.770,P3,-43.78,P5,-30.91,P24,-104.0,P5,-2.517,P3,4.700,P84,2.796,P2
7537,C94,,68.7%,Max,605.6,P2,1.747,P2,90.04,P4,-11.67,P57,38.36,P4,2.206,P2,90.05,P4,116.7,P5
7537,C94,,68.7%,Min,-253.0,P3,-1.770,P3,-39.90,P5,-30.91,P24,-116.7,P5,-2.892,P3,8.555,P84,24.21,P81
7537,C94,,75.0%,Max,605.6,P2,1.747,P2,93.92,P4,-11.67,P57,71.76,P4,2.591,P2,93.93,P4,127.9,P5
7537,C94,,75.0%,Min,-253.0,P3,-1.770,P3,-36.02,P5,-30.91,P24,-127.9,P5,-3.267,P3,12.43,P84,9.946,P81
7537,C94,,75.0%,Max,662.2,P2,21.94,P2,124.2,P4,-26.50,P57,82.62,P4,17.26,P2,124.8,P4,126.6,P5
7537,C94,,75.0%,Min,-266.2,P3,-10.83,P3,-7.676,P5,-70.02,P22,-126.6,P5,-9.776,P3,7.727,P5,8.511,P81
7537,C94,,81.2%,Max,662.2,P2,21.94,P2,128.1,P4,-26.50,P57,134.5,P4,15.19,P2,128.6,P4,134.7,P4
7537,C94,,81.2%,Min,-266.2,P3,-10.83,P3,-3.796,P5,-70.02,P22,-128.9,P5,-12.29,P3,3.897,P5,1.188,P43
7537,C94,,87.5%,Max,662.2,P2,21.94,P2,132.0,P4,-26.50,P57,188.0,P4,13.13,P2,132.5,P4,188.1,P4
7537,C94,,87.5%,Min,-266.2,P3,-10.83,P3,0.08469,P5,-70.02,P22,-129.5,P5,-14.80,P3,0.8865,P5,0.8376,P61
7537,C94,,93.7%,Max,662.2,P2,21.94,P2,136.5,P6,-26.50,P57,243.1,P4,11.06,P2,137.0,P6,243.2,P4
7537,C94,,93.7%,Min,-266.2,P3,-10.83,P3,3.965,P5,-70.02,P22,-128.6,P5,-17.31,P3,4.062,P5,15.63,P84
7537,C94,7592,100.0%,Max,662.2,P2,21.94,P2,141.7,P6,-26.50,P57,299.8,P4,8.991,P2,142.3,P6,299.8,P4
7537,C94,7592,100.0%,Min,-266.2,P3,-10.83,P3,7.846,P5,-70.02,P22,-126.1,P5,-19.82,P3,7.895,P5,35.80,P84
7539,C94,5226,0.0%,Max,65.02,P60,7.766,P85,-135.7,P2,-1.182,P4,59.12,P24,7.376,P85,334.7,P6,59.13,P24
7539,C94,5226,0.0%,Min,-46.01,P5,-8.735,P80,-334.7,P6,-7.134,P6,12.53,P3,-8.490,P80,135.8,P2,14.42,P3
7539,C94,,3.6%,Max,65.02,P60,7.766,P85,-132.1,P2,-1.182,P4,-11.40,P2,6.053,P4,329.9,P6,74.15,P6
7539,C94,,3.6%,Min,-46.01,P5,-8.735,P80,-329.9,P6,-7.134,P6,-74.10,P6,-7.091,P5,132.2,P2,12.39,P2
7539,C94,,7.1%,Max,65.02,P60,7.766,P85,-128.6,P2,-1.182,P4,-66.68,P2,5.723,P4,325.1,P6,198.3,P6
7539,C94,,7.1%,Min,-46.01,P5,-8.735,P80,-325.1,P6,-7.134,P6,-198.3,P6,-5.991,P5,128.6,P2,66.83,P2
7539,C94,,10.7%,Max,65.02,P60,7.766,P85,-125.0,P2,-1.182,P4,-120.6,P2,5.393,P4,320.3,P6,320.6,P6
7539,C94,,10.7%,Min,-46.01,P5,-8.735,P80,-320.3,P6,-7.134,P6,-320.6,P6,-4.891,P5,125.1,P2,120.7,P2
7539,C94,,14.3%,Max,65.02,P60,7.766,P85,-121.4,P2,-1.182,P4,-173.2,P2,5.063,P4,315.5,P6,441.1,P6
7539,C94,,14.3%,Min,-46.01,P5,-8.735,P80,-315.4,P6,-7.134,P6,-441.1,P6,-4.401,P85,121.5,P2,173.2,P2
7539,C94,,14.3%,Max,112.3,P2,4.054,P85,-85.37,P2,-1.206,P4,-182.3,P2,3.287,P85,225.1,P8,466.4,P6
7539,C94,,14.3%,Min,-72.34,P3,-4.661,P80,-225.1,P8,-7.393,P6,-466.4,P6,-3.878,P80,85.40,P2,182.3,P2
7539,C94,,17.9%,Max,112.3,P2,4.054,P85,-81.80,P2,-1.206,P4,-214.3,P2,2.558,P4,220.3,P8,550.7,P6
7539,C94,,17.9%,Min,-72.34,P3,-4.661,P80,-220.3,P8,-7.393,P6,-550.7,P6,-2.920,P5,81.83,P2,214.3,P2
7539,C94,,21.4%,Max,112.3,P2,4.054,P85,-78.23,P2,-1.206,P4,-244.9,P2,2.825,P4,215.5,P8,633.2,P6
7539,C94,,21.4%,Min,-72.34,P3,-4.661,P80,-215.5,P8,-7.393,P6,-633.2,P6,-2.761,P5,78.26,P2,244.9,P2
7539,C94,,25.0%,Max,112.3,P2,4.054,P85,-74.66,P2,-1.206,P4,-274.2,P2,3.092,P4,210.7,P8,713.9,P6
7539,C94,,25.0%,Min,-72.34,P3,-4.661,P80,-210.7,P8,-7.393,P6,-713.9,P6,-2.602,P5,74.70,P2,274.2,P2
7539,C94,,28.6%,Max,112.3,P2,4.054,P85,-71.09,P2,-1.206,P4,-302.2,P2,3.359,P4,205.9,P8,792.7,P6
7539,C94,,28.6%,Min,-72.34,P3,-4.661,P80,-205.9,P8,-7.393,P6,-792.7,P6,-2.861,P85,71.13,P2,302.2,P2
7539,C94,,28.6%,Max,179.4,P2,2.544,P85,-38.21,P2,-1.159,P4,-307.0,P2,2.044,P2,105.1,P24,807.3,P6
7539,C94,,28.6%,Min,-106.6,P3,-3.099,P80,-105.1,P24,-5.709,P6,-807.3,P6,-2.306,P3,38.26,P2,307.0,P2
7539,C94,,32.1%,Max,179.4,P2,2.544,P85,-34.65,P2,-1.159,P4,-321.0,P2,2.022,P2,100.3,P24,846.0,P6
7539,C94,,32.1%,Min,-106.6,P3,-3.099,P80,-100.3,P24,-5.709,P6,-846.0,P6,-2.044,P3,34.70,P2,321.0,P2
7539,C94,,35.7%,Max,179.4,P2,2.544,P85,-31.08,P2,-1.159,P4,-333.6,P2,2.000,P2,95.51,P24,882.8,P6
7539,C94,,35.7%,Min,-106.6,P3,-3.099,P80,-95.51,P24,-5.709,P6,-882.8,P6,-1.782,P3,31.14,P2,333.6,P2
7539,C94,,39.3%,Max,179.4,P2,2.544,P85,-27.51,P2,-1.159,P4,-344.9,P2,2.250,P4,90.69,P24,917.7,P6
7539,C94,,39.3%,Min,-106.6,P3,-3.099,P80,-90.69,P24,-5.709,P6,-917.7,P6,-1.792,P5,27.57,P2,344.9,P2
7539,C94,,42.9%,Max,179.4,P2,2.544,P85,-23.94,P2,-1.159,P4,-354.8,P2,2.733,P79,85.87,P24,950.9,P6
7539,C94,,42.9%,Min,-106.6,P3,-3.099,P80,-85.87,P24,-5.709,P6,-950.9,P6,-2.340,P85,24.01,P2,354.8,P2
7539,C94,,42.9%,Max,236.5,P2,2.000,P2,5.952,P6,0.4811,P2,-356.2,P2,2.376,P2,6.102,P6,955.4,P6
7539,C94,,42.9%,Min,-133.9,P3,-2.549,P3,-3.192,P3,-1.626,P3,-955.4,P6,-2.533,P3,0.7115,P51,356.2,P2
7539,C94,,46.4%,Max,236.5,P2,2.000,P2,10.77,P6,0.4811,P2,-355.6,P2,2.246,P2,10.85,P6,952.2,P6
7539,C94,,46.4%,Min,-133.9,P3,-2.549,P3,0.3773,P3,-1.626,P3,-952.2,P6,-2.194,P3,1.633,P36,355.6,P2
7539,C94,,50.0%,Max,236.5,P2,2.000,P2,15.59,P6,0.4811,P2,-353.5,P2,2.115,P2,15.65,P6,947.2,P6
7539,C94,,50.0%,Min,-133.9,P3,-2.549,P3,3.947,P3,-1.626,P3,-947.2,P6,-1.855,P3,4.698,P3,353.5,P2
7539,C94,,53.6%,Max,236.5,P2,2.000,P2,20.41,P6,0.4811,P2,-350.1,P2,2.010,P4,20.45,P6,940.4,P6
7539,C94,,53.6%,Min,-133.9,P3,-2.549,P3,7.516,P3,-1.626,P3,-940.4,P6,-1.542,P5,7.937,P3,350.2,P2
7539,C94,,57.1%,Max,236.5,P2,2.000,P2,25.23,P6,0.4811,P2,-345.4,P2,2.539,P80,25.26,P6,931.7,P6
7539,C94,,57.1%,Min,-133.9,P3,-2.549,P3,11.09,P3,-1.626,P3,-931.7,P6,-2.106,P85,11.37,P3,345.4,P2
7539,C94,,57.1%,Max,285.2,P2,2.714,P2,110.5,P6,0.6716,P2,-343.0,P2,3.049,P2,110.5,P6,925.0,P6
7539,C94,,57.1%,Min,-156.2,P3,-3.677,P3,35.05,P3,-1.464,P3,-925.0,P6,-3.565,P3,35.25,P3,343.0,P2
7539,C94,,60.7%,Max,285.2,P2,2.714,P2,115.3,P6,0.6716,P2,-328.9,P2,2.892,P2,115.3,P6,882.2,P6
7539,C94,,60.7%,Min,-156.2,P3,-3.677,P3,38.62,P3,-1.464,P3,-882.2,P6,-3.043,P3,38.80,P3,329.0,P2
7539,C94,,64.3%,Max,285.2,P2,2.714,P2,120.1,P6,0.6716,P2,-313.5,P2,2.734,P2,120.1,P6,837.6,P6
7539,C94,,64.3%,Min,-156.2,P3,-3.677,P3,42.19,P3,-1.464,P3,-837.6,P6,-2.520,P3,42.35,P3,313.5,P2
7539,C94,,67.9%,Max,285.2,P2,2.714,P2,124.9,P6,0.6716,P2,-296.7,P2,2.577,P2,124.9,P6,791.1,P6
7539,C94,,67.9%,Min,-156.2,P3,-3.677,P3,45.76,P3,-1.464,P3,-791.1,P6,-1.998,P3,45.91,P3,296.7,P2
7539,C94,,71.4%,Max,285.2,P2,2.714,P2,129.7,P6,0.6716,P2,-278.6,P2,2.419,P2,129.7,P6,742.9,P6
7539,C94,,71.4%,Min,-156.2,P3,-3.677,P3,49.33,P3,-1.464,P3,-742.9,P6,-1.521,P89,49.47,P3,278.6,P2
7539,C94,,71.4%,Max,318.6,P2,6.525,P2,241.6,P6,2.827,P2,-272.1,P2,5.095,P2,241.6,P6,724.8,P6
7539,C94,,71.4%,Min,-170.8,P3,-10.41,P3,86.58,P3,-1.885,P3,-724.8,P6,-7.479,P3,87.20,P3,272.2,P2
7539,C94,,75.0%,Max,318.6,P2,6.525,P2,246.4,P6,2.827,P2,-238.4,P2,5.938,P2,246.5,P6,632.3,P6
7539,C94,,75.0%,Min,-170.8,P3,-10.41,P3,90.15,P3,-1.885,P3,-632.3,P6,-6.848,P3,90.75,P3,238.5,P2
7539,C94,,78.6%,Max,318.6,P2,6.525,P2,251.3,P6,2.827,P2,-203.3,P2,6.781,P2,251.3,P6,537.9,P6
7539,C94,,78.6%,Min,-170.8,P3,-10.41,P3,93.72,P3,-1.885,P3,-537.9,P6,-6.217,P3,94.29,P3,203.4,P2
7539,C94,,82.1%,Max,318.6,P2,6.525,P2,256.1,P6,2.827,P2,-166.9,P2,7.623,P2,256.1,P6,441.7,P6
7539,C94,,82.1%,Min,-170.8,P3,-10.41,P3,97.29,P3,-1.885,P3,-441.7,P6,-5.585,P3,97.84,P3,167.1,P2
7539,C94,,85.7%,Max,318.6,P2,6.525,P2,260.9,P6,2.827,P2,-129.1,P2,8.466,P2,260.9,P6,343.8,P33
7539,C94,,85.7%,Min,-170.8,P3,-10.41,P3,100.9,P3,-1.885,P3,-343.8,P33,-4.954,P3,101.4,P3,129.4,P2
7539,C94,,85.7%,Max,270.5,P2,16.86,P2,294.3,P33,17.45,P8,-113.3,P2,9.528,P2,294.3,P33,303.1,P33
7539,C94,,85.7%,Min,-144.9,P3,-24.77,P3,111.8,P3,4.865,P3,-303.1,P33,-13.52,P3,114.5,P3,113.7,P2
7539,C94,,89.3%,Max,270.5,P2,16.86,P2,299.1,P33,17.45,P8,-63.03,P2,13.17,P2,299.2,P33,190.6,P33
7539,C94,,89.3%,Min,-144.9,P3,-24.77,P3,115.4,P3,4.865,P3,-190.6,P33,-14.16,P3,118.0,P3,64.39,P2
7539,C94,,92.9%,Max,270.5,P2,16.86,P2,303.9,P33,17.45,P8,-11.45,P2,16.81,P2,304.0,P33,76.29,P32
7539,C94,,92.9%,Min,-144.9,P3,-24.77,P3,118.9,P3,4.865,P3,-76.28,P32,-14.80,P3,121.5,P3,20.34,P2
7539,C94,,96.4%,Max,270.5,P2,16.86,P2,308.8,P33,17.45,P8,41.48,P2,20.44,P2,308.8,P33,46.24,P2
7539,C94,,96.4%,Min,-144.9,P3,-24.77,P3,122.5,P3,4.865,P3,-2.648,P3,-15.44,P3,125.0,P3,9.677,P5
7539,C94,5246,100.0%,Max,270.5,P2,16.86,P2,313.6,P33,17.45,P8,158.0,P31,24.08,P2,313.6,P33,158.1,P31
7539,C94,5246,100.0%,Min,-144.9,P3,-24.77,P3,126.1,P3,4.865,P3,65.30,P3,-16.08,P3,128.5,P3,65.69,P84
7540,C94,5157,0.0%,Max,87.32,P61,10.05,P61,-109.3,P60,-0.1097,P4,58.04,P24,10.70,P61,241.2,P6,58.28,P24
7540,C94,5157,0.0%,Min,-77.93,P5,-8.240,P5,-241.2,P6,-5.030,P6,8.495,P3,-7.754,P5,109.8,P60,9.449,P3
7540,C94,,3.6%,Max,87.32,P61,10.05,P61,-105.7,P60,-0.1097,P4,0.06650,P2,8.344,P4,236.3,P6,43.09,P6
7540,C94,,3.6%,Min,-77.93,P5,-8.240,P5,-236.2,P6,-5.030,P6,-43.07,P6,-7.204,P5,106.1,P60,5.194,P2
7540,C94,,7.1%,Max,87.32,P61,10.05,P61,-102.0,P60,-0.1097,P4,-46.73,P60,7.304,P4,231.3,P6,134.1,P6
7540,C94,,7.1%,Min,-77.93,P5,-8.240,P5,-231.3,P6,-5.030,P6,-134.1,P6,-6.655,P5,102.5,P60,46.81,P60
7540,C94,,10.7%,Max,87.32,P61,10.05,P61,-98.32,P60,-0.1097,P4,-85.74,P60,6.263,P4,226.4,P6,223.3,P6
7540,C94,,10.7%,Min,-77.93,P5,-8.240,P5,-226.3,P6,-5.030,P6,-223.3,P6,-6.105,P5,98.82,P60,85.75,P60
7540,C94,,14.3%,Max,87.32,P61,10.05,P61,-94.66,P60,-0.1097,P4,-123.3,P60,5.223,P4,221.4,P6,310.5,P6
7540,C94,,14.3%,Min,-77.93,P5,-8.240,P5,-221.4,P6,-5.030,P6,-310.5,P6,-5.556,P5,95.16,P68,123.4,P60
7540,C94,,14.3%,Max,163.4,P2,6.984,P59,-71.00,P57,-0.2751,P4,-128.5,P60,5.443,P59,153.7,P25,323.8,P6
7540,C94,,14.3%,Min,-145.5,P3,-6.477,P81,-153.7,P25,-6.294,P6,-323.8,P6,-4.993,P81,71.13,P43,128.6,P60
7540,C94,,17.9%,Max,163.4,P2,6.984,P59,-67.33,P57,-0.2751,P4,-155.7,P60,3.310,P4,148.8,P25,382.6,P6
7540,C94,,17.9%,Min,-145.5,P3,-6.477,P81,-148.7,P25,-6.294,P6,-382.6,P6,-3.736,P5,67.46,P43,155.7,P60
7540,C94,,21.4%,Max,163.4,P2,6.984,P59,-63.67,P57,-0.2751,P4,-181.4,P60,3.800,P4,143.8,P25,439.5,P6
7540,C94,,21.4%,Min,-145.5,P3,-6.477,P81,-143.8,P25,-6.294,P6,-439.5,P6,-3.939,P5,63.79,P43,181.4,P60
7540,C94,,25.0%,Max,163.4,P2,6.984,P59,-60.00,P57,-0.2751,P4,-205.8,P60,4.291,P4,138.9,P25,494.5,P6
7540,C94,,25.0%,Min,-145.5,P3,-6.477,P81,-138.8,P25,-6.294,P6,-494.5,P6,-4.143,P5,60.13,P43,205.8,P60
7540,C94,,28.6%,Max,163.4,P2,6.984,P59,-56.33,P57,-0.2751,P4,-228.7,P60,5.100,P81,133.9,P25,547.5,P6
7540,C94,,28.6%,Min,-145.5,P3,-6.477,P81,-133.9,P25,-6.294,P6,-547.5,P6,-5.751,P85,56.46,P43,228.7,P60
7540,C94,,28.6%,Max,234.2,P2,4.187,P59,-30.09,P79,1.562,P4,-231.5,P60,2.100,P2,65.51,P24,554.3,P6
7540,C94,,28.6%,Min,-202.2,P3,-4.088,P81,-65.51,P24,-3.202,P5,-554.3,P6,-2.261,P3,30.28,P79,231.5,P60
7540,C94,,32.1%,Max,234.2,P2,4.187,P59,-26.42,P79,1.562,P4,-244.0,P60,2.384,P2,60.56,P24,578.2,P6
7540,C94,,32.1%,Min,-202.2,P3,-4.088,P81,-60.56,P24,-3.202,P5,-578.2,P6,-2.228,P3,26.64,P79,244.0,P60
7540,C94,,35.7%,Max,234.2,P2,4.187,P59,-22.75,P79,1.562,P4,-255.1,P60,3.013,P4,55.61,P24,600.2,P6
7540,C94,,35.7%,Min,-202.2,P3,-4.088,P81,-55.61,P24,-3.202,P5,-600.2,P6,-2.539,P5,23.01,P79,255.1,P60
7540,C94,,39.3%,Max,234.2,P2,4.187,P59,-19.08,P79,1.562,P4,-264.8,P60,3.855,P81,50.66,P24,620.3,P6
7540,C94,,39.3%,Min,-202.2,P3,-4.088,P81,-50.65,P24,-3.202,P5,-620.3,P6,-3.877,P85,19.39,P79,264.8,P60
7540,C94,,42.9%,Max,234.2,P2,4.187,P59,-15.42,P79,1.562,P4,-273.1,P60,5.448,P81,45.71,P24,638.4,P6
7540,C94,,42.9%,Min,-202.2,P3,-4.088,P81,-45.70,P24,-3.202,P5,-638.4,P6,-5.435,P83,15.79,P55,273.1,P60
7540,C94,,42.9%,Max,266.3,P2,1.932,P59,25.63,P6,1.549,P4,-273.4,P60,2.099,P2,25.65,P6,638.9,P6
7540,C94,,42.9%,Min,-233.4,P3,-1.887,P81,3.913,P60,-2.482,P5,-638.9,P6,-1.905,P3,4.213,P60,273.4,P60
7540,C94,,46.4%,Max,266.3,P2,1.932,P59,30.58,P6,1.549,P4,-271.1,P60,2.227,P4,30.60,P6,627.9,P6
7540,C94,,46.4%,Min,-233.4,P3,-1.887,P81,7.580,P60,-2.482,P5,-627.9,P6,-1.853,P5,7.739,P60,271.1,P60
7540,C94,,50.0%,Max,266.3,P2,1.932,P59,35.53,P6,1.549,P4,-267.5,P60,2.429,P4,35.55,P6,615.0,P6
7540,C94,,50.0%,Min,-233.4,P3,-1.887,P81,11.25,P60,-2.482,P5,-615.0,P6,-1.875,P5,11.35,P60,267.5,P60
7540,C94,,53.6%,Max,266.3,P2,1.932,P59,40.48,P6,1.549,P4,-262.4,P60,2.631,P4,40.50,P6,600.2,P6
7540,C94,,53.6%,Min,-233.4,P3,-1.887,P81,14.91,P60,-2.482,P5,-600.2,P6,-2.373,P83,15.00,P60,262.4,P60
7540,C94,,57.1%,Max,266.3,P2,1.932,P59,45.43,P6,1.549,P4,-255.9,P60,3.265,P81,45.45,P6,583.5,P6
7540,C94,,57.1%,Min,-233.4,P3,-1.887,P81,18.58,P60,-2.482,P5,-583.5,P6,-3.079,P83,18.65,P60,255.9,P60
7540,C94,,57.1%,Max,268.8,P2,1.464,P2,109.5,P6,2.559,P11,-253.4,P60,2.590,P4,109.5,P6,577.2,P6
7540,C94,,57.1%,Min,-246.2,P3,-1.730,P3,40.62,P60,-0.4730,P5,-577.2,P6,-2.138,P5,40.63,P60,253.4,P60
7540,C94,,60.7%,Max,268.8,P2,1.464,P2,114.4,P6,2.559,P11,-236.0,P68,2.438,P4,114.4,P6,533.7,P29
7540,C94,,60.7%,Min,-246.2,P3,-1.730,P3,44.29,P60,-0.4730,P5,-533.7,P29,-1.882,P5,44.30,P60,236.0,P68
7540,C94,,64.3%,Max,268.8,P2,1.464,P2,119.4,P6,2.559,P11,-215.8,P56,2.286,P4,119.4,P6,489.2,P29
7540,C94,,64.3%,Min,-246.2,P3,-1.730,P3,47.96,P60,-0.4730,P5,-489.2,P29,-1.627,P5,47.96,P60,215.8,P56
7540,C94,,67.9%,Max,268.8,P2,1.464,P2,124.3,P6,2.559,P11,-193.8,P56,2.134,P4,124.3,P6,442.7,P29
7540,C94,,67.9%,Min,-246.2,P3,-1.730,P3,51.62,P60,-0.4730,P5,-442.7,P29,-1.618,P83,51.63,P60,193.8,P56
7540,C94,,71.4%,Max,268.8,P2,1.464,P2,129.3,P6,2.559,P11,-170.4,P57,2.328,P81,129.3,P6,394.4,P25
7540,C94,,71.4%,Min,-246.2,P3,-1.730,P3,55.29,P60,-0.4730,P5,-394.4,P25,-2.015,P83,55.30,P60,170.4,P57
7540,C94,,71.4%,Max,245.8,P2,2.699,P2,210.8,P6,3.572,P11,-164.5,P57,3.347,P4,210.8,P6,381.7,P25
7540,C94,,71.4%,Min,-249.3,P3,-2.860,P3,84.68,P60,-0.1917,P57,-381.7,P25,-2.683,P5,84.69,P60,164.5,P57
7540,C94,,75.0%,Max,245.8,P2,2.699,P2,215.7,P6,3.572,P11,-127.6,P81,3.021,P4,215.7,P6,299.9,P25
7540,C94,,75.0%,Min,-249.3,P3,-2.860,P3,88.35,P60,-0.1917,P57,-299.9,P25,-2.294,P5,88.36,P60,127.6,P81
7540,C94,,78.6%,Max,245.8,P2,2.699,P2,220.7,P6,3.572,P11,-89.03,P79,2.695,P4,220.7,P6,216.3,P24
7540,C94,,78.6%,Min,-249.3,P3,-2.860,P3,92.01,P60,-0.1917,P57,-216.3,P24,-1.905,P5,92.03,P60,89.04,P79
7540,C94,,82.1%,Max,245.8,P2,2.699,P2,225.6,P6,3.572,P11,-47.35,P2,2.503,P2,225.6,P6,130.9,P24
7540,C94,,82.1%,Min,-249.3,P3,-2.860,P3,95.68,P60,-0.1917,P57,-130.9,P24,-1.650,P3,95.69,P60,47.42,P2
7540,C94,,85.7%,Max,245.8,P2,2.699,P2,230.6,P6,3.572,P11,0.1071,P2,2.408,P80,230.6,P6,43.65,P24
7540,C94,,85.7%,Min,-249.3,P3,-2.860,P3,99.35,P60,-0.1917,P57,-43.65,P24,-2.007,P83,99.36,P60,2.315,P2
7540,C94,,85.7%,Max,182.1,P2,8.428,P59,292.7,P6,4.656,P11,11.20,P2,6.916,P59,293.1,P6,31.87,P3
7540,C94,,85.7%,Min,-255.8,P3,-18.51,P7,122.4,P60,0.7190,P5,-30.39,P3,-10.50,P5,122.6,P60,4.492,P43
7540,C94,,89.3%,Max,182.1,P2,8.428,P59,297.6,P6,4.656,P11,101.2,P6,8.933,P4,298.1,P6,101.2,P6
7540,C94,,89.3%,Min,-255.8,P3,-18.51,P7,126.1,P60,0.7190,P5,25.93,P3,-8.978,P5,126.3,P60,27.20,P3
7540,C94,,92.9%,Max,182.1,P2,8.428,P59,302.6,P6,4.656,P11,218.1,P6,11.92,P4,303.0,P6,218.2,P6
7540,C94,,92.9%,Min,-255.8,P3,-18.51,P7,129.7,P60,0.7190,P5,77.20,P60,-7.451,P5,130.0,P60,77.20,P60
7540,C94,,96.4%,Max,182.1,P2,8.428,P59,307.5,P6,4.656,P11,336.9,P6,14.91,P4,308.0,P6,337.1,P6
7540,C94,,96.4%,Min,-255.8,P3,-18.51,P7,133.4,P60,0.7190,P5,128.5,P60,-5.925,P5,133.6,P60,128.5,P60
7540,C94,5243,100.0%,Max,182.1,P2,8.428,P59,312.5,P6,4.656,P11,457.7,P6,19.44,P7,312.9,P6,458.0,P6
7540,C94,5243,100.0%,Min,-255.8,P3,-18.51,P7,137.1,P60,0.7190,P5,181.1,P60,-6.267,P83,137.3,P60,181.2,P60
7543,C94,4809,0.0%,Max,656.8,P2,80.26,P83,-152.7,P81,19.64,P6,914.2,P24,86.54,P83,407.8,P24,914.2,P24
7543,C94,4809,0.0%,Min,-471.3,P3,-97.99,P80,-407.8,P24,0.2007,P60,119.3,P3,-106.4,P80,160.2,P2,138.1,P3
7543,C94,,3.6%,Max,656.8,P2,80.26,P83,-149.0,P81,19.64,P6,756.6,P24,55.32,P83,402.9,P24,756.6,P24
7543,C94,,3.6%,Min,-471.3,P3,-97.99,P80,-402.8,P24,0.2007,P60,57.95,P3,-68.26,P80,156.6,P2,80.15,P3
7543,C94,,7.1%,Max,656.8,P2,80.26,P83,-145.4,P81,19.64,P6,609.9,P12,40.15,P4,397.9,P24,610.0,P12
7543,C94,,7.1%,Min,-471.3,P3,-97.99,P80,-397.9,P24,0.2007,P60,-1.964,P3,-52.26,P5,153.0,P2,41.32,P3
7543,C94,,10.7%,Max,656.8,P2,80.26,P83,-141.7,P81,19.64,P6,466.3,P12,38.73,P4,393.0,P24,466.3,P12
7543,C94,,10.7%,Min,-471.3,P3,-97.99,P80,-392.9,P24,0.2007,P60,-60.46,P3,-36.38,P5,149.4,P2,49.81,P5
7543,C94,,14.3%,Max,656.8,P2,80.26,P83,-138.0,P81,19.64,P6,361.9,P2,46.05,P80,388.1,P24,363.1,P2
7543,C94,,14.3%,Min,-471.3,P3,-97.99,P80,-388.0,P24,0.2007,P60,-117.5,P3,-38.39,P82,145.8,P2,42.31,P57
7543,C94,,14.3%,Max,470.8,P2,8.422,P83,-96.37,P2,14.53,P6,337.8,P2,6.700,P83,286.5,P24,337.8,P2
7543,C94,,14.3%,Min,-342.5,P3,-9.933,P80,-286.5,P24,0.9349,P60,-130.2,P3,-8.140,P80,96.42,P2,7.152,P57
7543,C94,,17.9%,Max,470.8,P2,8.422,P83,-92.71,P2,14.53,P6,264.6,P2,4.131,P4,281.6,P24,264.6,P2
7543,C94,,17.9%,Min,-342.5,P3,-9.933,P80,-281.6,P24,0.9349,P60,-168.0,P3,-5.771,P5,92.76,P2,2.101,P75
7543,C94,,21.4%,Max,470.8,P2,8.422,P83,-89.05,P2,14.53,P6,192.8,P2,4.975,P4,276.7,P24,204.5,P3
7543,C94,,21.4%,Min,-342.5,P3,-9.933,P80,-276.7,P24,0.9349,P60,-204.4,P3,-5.231,P5,89.10,P2,1.141,P69
7543,C94,,25.0%,Max,470.8,P2,8.422,P83,-85.39,P2,14.53,P6,122.4,P2,5.819,P4,271.7,P24,239.4,P3
7543,C94,,25.0%,Min,-342.5,P3,-9.933,P80,-271.7,P24,0.9349,P60,-239.4,P3,-4.691,P5,85.44,P2,1.384,P90
7543,C94,,28.6%,Max,470.8,P2,8.422,P83,-81.73,P2,14.53,P6,53.48,P2,7.310,P80,266.8,P24,272.9,P3
7543,C94,,28.6%,Min,-342.5,P3,-9.933,P80,-266.8,P24,0.9349,P60,-272.9,P3,-6.402,P85,81.79,P2,6.093,P58
7543,C94,,28.6%,Max,376.5,P2,3.282,P83,-31.33,P2,6.082,P6,37.72,P2,1.632,P2,154.8,P24,279.0,P3
7543,C94,,28.6%,Min,-272.3,P3,-4.146,P80,-154.8,P24,0.1304,P3,-279.0,P3,-2.769,P3,31.37,P2,5.322,P84
7543,C94,,32.1%,Max,376.5,P2,3.282,P83,-27.67,P2,6.082,P6,-7.413,P2,1.994,P2,149.8,P24,319.7,P6
7543,C94,,32.1%,Min,-272.3,P3,-4.146,P80,-149.8,P24,0.1304,P3,-319.7,P6,-2.437,P3,27.71,P2,7.676,P2
7543,C94,,35.7%,Max,376.5,P2,3.282,P83,-24.01,P2,6.082,P6,-51.12,P2,2.462,P4,144.9,P24,368.1,P6
7543,C94,,35.7%,Min,-272.3,P3,-4.146,P80,-144.9,P24,0.1304,P3,-368.1,P6,-2.210,P5,24.06,P2,51.17,P2
7543,C94,,39.3%,Max,376.5,P2,3.282,P83,-20.34,P2,6.082,P6,-93.40,P2,3.276,P4,140.0,P24,414.7,P6
7543,C94,,39.3%,Min,-272.3,P3,-4.146,P80,-140.0,P24,0.1304,P3,-414.7,P6,-2.380,P83,20.40,P2,93.44,P2
7543,C94,,42.9%,Max,376.5,P2,3.282,P83,-16.68,P2,6.082,P6,-134.3,P2,4.281,P80,135.0,P24,459.3,P6
7543,C94,,42.9%,Min,-272.3,P3,-4.146,P80,-135.0,P24,0.1304,P3,-459.3,P6,-3.657,P83,16.76,P2,134.3,P2
7543,C94,,42.9%,Max,330.8,P2,1.626,P59,36.13,P2,1.334,P4,-140.9,P60,1.913,P2,49.33,P3,465.4,P6
7543,C94,,42.9%,Min,-238.7,P3,-2.699,P3,-49.26,P3,-0.3768,P5,-465.4,P6,-2.509,P3,0.9236,P43,141.0,P60
7543,C94,,46.4%,Max,330.8,P2,1.626,P59,39.79,P2,1.334,P4,-154.9,P60,2.065,P2,45.68,P3,463.5,P6
7543,C94,,46.4%,Min,-238.7,P3,-2.699,P3,-45.60,P3,-0.3768,P5,-463.5,P6,-2.166,P3,1.391,P42,154.9,P60
7543,C94,,50.0%,Max,330.8,P2,1.626,P59,43.45,P2,1.334,P4,-167.4,P60,2.216,P2,43.47,P2,459.6,P6
7543,C94,,50.0%,Min,-238.7,P3,-2.699,P3,-41.94,P3,-0.3768,P5,-459.6,P6,-1.824,P3,0.3707,P69,167.4,P60
7543,C94,,53.6%,Max,330.8,P2,1.626,P59,47.11,P2,1.334,P4,-178.5,P60,2.608,P4,47.13,P2,453.9,P6
7543,C94,,53.6%,Min,-238.7,P3,-2.699,P3,-38.28,P3,-0.3768,P5,-453.9,P6,-1.853,P83,0.2302,P47,178.5,P60
7543,C94,,57.1%,Max,330.8,P2,1.626,P59,50.77,P2,1.334,P4,-185.8,P48,3.087,P80,50.79,P2,448.5,P8
7543,C94,,57.1%,Min,-238.7,P3,-2.699,P3,-34.62,P3,-0.3768,P5,-448.5,P8,-2.478,P83,0.5265,P11,185.8,P48
7543,C94,,57.1%,Max,308.4,P2,1.827,P2,125.3,P6,0.2828,P2,-183.6,P46,2.327,P2,125.3,P6,442.3,P8
7543,C94,,57.1%,Min,-223.9,P3,-2.955,P3,16.60,P3,-4.234,P6,-442.3,P8,-2.744,P3,16.86,P3,183.6,P46
7543,C94,,60.7%,Max,308.4,P2,1.827,P2,130.3,P6,0.2828,P2,-157.5,P4,2.396,P2,130.3,P6,399.3,P8
7543,C94,,60.7%,Min,-223.9,P3,-2.955,P3,20.26,P3,-4.234,P6,-399.3,P8,-2.374,P3,20.47,P3,157.5,P4
7543,C94,,64.3%,Max,308.4,P2,1.827,P2,135.2,P6,0.2828,P2,-127.9,P4,2.464,P2,135.2,P6,354.4,P8
7543,C94,,64.3%,Min,-223.9,P3,-2.955,P3,23.92,P3,-4.234,P6,-354.4,P8,-2.004,P3,24.10,P3,127.9,P4
7543,C94,,67.9%,Max,308.4,P2,1.827,P2,140.2,P6,0.2828,P2,-96.82,P4,2.533,P2,140.2,P6,307.6,P8
7543,C94,,67.9%,Min,-223.9,P3,-2.955,P3,27.58,P3,-4.234,P6,-307.6,P8,-1.634,P3,27.74,P3,96.85,P4
7543,C94,,71.4%,Max,308.4,P2,1.827,P2,145.1,P6,0.2828,P2,-64.34,P4,2.678,P80,145.1,P6,259.1,P24
7543,C94,,71.4%,Min,-223.9,P3,-2.955,P3,31.24,P3,-4.234,P6,-259.1,P24,-2.026,P83,31.38,P3,64.39,P4
7543,C94,,71.4%,Max,298.1,P2,3.500,P2,269.4,P6,-2.116,P2,-50.71,P4,3.311,P2,269.4,P6,239.3,P24
7543,C94,,71.4%,Min,-219.6,P3,-4.444,P3,79.79,P60,-14.06,P6,-239.3,P24,-3.503,P3,79.80,P60,50.79,P4
7543,C94,,75.0%,Max,298.1,P2,3.500,P2,274.3,P6,-2.116,P2,12.96,P4,3.425,P2,274.3,P6,145.7,P12
7543,C94,,75.0%,Min,-219.6,P3,-4.444,P3,83.45,P60,-14.06,P6,-145.7,P12,-3.250,P3,83.46,P60,8.935,P81
7543,C94,,78.6%,Max,298.1,P2,3.500,P2,279.2,P6,-2.116,P2,79.25,P2,3.540,P2,279.2,P6,99.87,P3
7543,C94,,78.6%,Min,-219.6,P3,-4.444,P3,87.11,P60,-14.06,P6,-99.82,P3,-2.998,P3,87.12,P60,1.317,P18
7543,C94,,82.1%,Max,298.1,P2,3.500,P2,284.2,P6,-2.116,P2,148.0,P2,3.654,P2,284.2,P6,148.0,P2
7543,C94,,82.1%,Min,-219.6,P3,-4.444,P3,90.77,P60,-14.06,P6,-58.77,P3,-2.745,P3,90.78,P60,0.7343,P34
7543,C94,,85.7%,Max,298.1,P2,3.500,P2,289.1,P6,-2.116,P2,229.2,P7,3.768,P2,289.1,P6,229.2,P7
7543,C94,,85.7%,Min,-219.6,P3,-4.444,P3,94.43,P60,-14.06,P6,-16.29,P3,-2.492,P3,94.44,P60,2.032,P61
7543,C94,,85.7%,Max,287.1,P2,16.61,P4,369.3,P6,-2.844,P2,264.9,P6,12.89,P4,369.3,P6,264.9,P6
7543,C94,,85.7%,Min,-219.8,P3,-15.39,P5,125.7,P60,-17.28,P6,-2.316,P3,-11.92,P5,125.8,P60,7.500,P60
7543,C94,,89.3%,Max,287.1,P2,16.61,P4,374.2,P6,-2.844,P2,409.5,P6,12.81,P4,374.2,P6,409.5,P6
7543,C94,,89.3%,Min,-219.8,P3,-15.39,P5,129.4,P60,-17.28,P6,54.42,P60,-12.31,P5,129.4,P60,54.63,P60
7543,C94,,92.9%,Max,287.1,P2,16.61,P4,379.2,P6,-2.844,P2,556.0,P6,12.72,P4,379.2,P6,556.0,P6
7543,C94,,92.9%,Min,-219.8,P3,-15.39,P5,133.1,P60,-17.28,P6,105.5,P60,-12.70,P5,133.1,P60,105.5,P60
7543,C94,,96.4%,Max,287.1,P2,16.61,P4,384.1,P6,-2.844,P2,704.4,P6,12.64,P4,384.1,P6,704.4,P6
7543,C94,,96.4%,Min,-219.8,P3,-15.39,P5,136.7,P60,-17.28,P6,157.9,P60,-13.09,P5,136.7,P60,157.9,P60
7543,C94,4837,100.0%,Max,287.1,P2,16.61,P4,389.1,P6,-2.844,P2,854.8,P6,12.56,P4,389.1,P6,854.8,P6
7543,C94,4837,100.0%,Min,-219.8,P3,-15.39,P5,140.4,P60,-17.28,P6,211.8,P60,-13.48,P5,140.4,P60,211.8,P60
7544,C94,4810,0.0%,Max,745.9,P2,229.0,P83,-83.26,P2,44.92,P6,450.9,P9,263.7,P83,272.2,P7,472.1,P9
7544,C94,4810,0.0%,Min,-588.4,P3,-242.8,P81,-209.8,P8,10.10,P59,-8.983,P3,-282.5,P81,94.55,P51,134.5,P51
7544,C94,,3.6%,Max,745.9,P2,229.0,P83,-79.58,P2,44.92,P6,392.9,P2,174.4,P83,269.0,P7,400.3,P2
7544,C94,,3.6%,Min,-588.4,P3,-242.8,P81,-204.9,P8,10.10,P59,-40.95,P3,-187.8,P81,90.89,P51,98.30,P51
7544,C94,,7.1%,Max,745.9,P2,229.0,P83,-75.91,P2,44.92,P6,337.8,P2,92.54,P4,265.9,P7,344.5,P2
7544,C94,,7.1%,Min,-588.4,P3,-242.8,P81,-199.9,P8,10.10,P59,-71.49,P3,-117.0,P5,87.24,P51,54.46,P75
7544,C94,,10.7%,Max,745.9,P2,229.0,P83,-72.24,P2,44.92,P6,284.0,P2,78.97,P4,262.8,P7,290.1,P2
7544,C94,,10.7%,Min,-588.4,P3,-242.8,P81,-195.0,P8,10.10,P59,-100.6,P3,-81.61,P5,83.58,P51,3.163,P75
7544,C94,,14.3%,Max,745.9,P2,229.0,P83,-68.57,P2,44.92,P6,231.7,P2,96.30,P81,259.8,P7,237.1,P2
7544,C94,,14.3%,Min,-588.4,P3,-242.8,P81,-190.0,P8,10.10,P59,-128.3,P3,-93.61,P83,79.93,P51,3.663,P51
7544,C94,,14.3%,Max,583.4,P2,2.791,P2,-49.95,P2,31.55,P6,225.3,P2,7.146,P79,150.5,P8,225.4,P2
7544,C94,,14.3%,Min,-507.8,P3,-4.002,P3,-150.5,P8,6.629,P59,-131.2,P3,-7.799,P85,50.03,P2,3.216,P73
7544,C94,,17.9%,Max,583.4,P2,2.791,P2,-46.28,P2,31.55,P6,181.9,P2,7.439,P79,145.5,P8,182.0,P2
7544,C94,,17.9%,Min,-507.8,P3,-4.002,P3,-145.5,P8,6.629,P59,-150.2,P3,-7.861,P85,46.36,P2,1.981,P53
7544,C94,,21.4%,Max,583.4,P2,2.791,P2,-42.61,P2,31.55,P6,139.9,P2,7.731,P79,140.6,P8,167.8,P3
7544,C94,,21.4%,Min,-507.8,P3,-4.002,P3,-140.6,P8,6.629,P59,-167.8,P3,-7.924,P85,42.70,P2,1.945,P28
7544,C94,,25.0%,Max,583.4,P2,2.791,P2,-38.94,P2,31.55,P6,99.25,P2,8.024,P79,135.6,P8,184.0,P3
7544,C94,,25.0%,Min,-507.8,P3,-4.002,P3,-135.6,P8,6.629,P59,-183.9,P3,-7.987,P85,39.04,P2,0.2736,P68
7544,C94,,28.6%,Max,583.4,P2,2.791,P2,-35.26,P2,31.55,P6,60.09,P2,8.574,P80,130.7,P8,198.7,P3
7544,C94,,28.6%,Min,-507.8,P3,-4.002,P3,-130.7,P8,6.629,P59,-198.7,P3,-8.105,P83,35.37,P2,7.678,P61
7544,C94,,28.6%,Max,494.0,P2,0.8041,P2,-12.42,P2,15.03,P6,55.88,P2,3.658,P79,82.41,P8,199.9,P3
7544,C94,,28.6%,Min,-448.7,P3,-1.172,P3,-82.41,P8,1.222,P85,-199.8,P3,-3.676,P85,12.44,P2,3.370,P82
7544,C94,,32.1%,Max,494.0,P2,0.8041,P2,-8.746,P2,15.03,P6,27.50,P2,3.689,P79,77.45,P8,204.3,P3
7544,C94,,32.1%,Min,-448.7,P3,-1.172,P3,-77.45,P8,1.222,P85,-204.3,P3,-3.627,P85,8.783,P2,8.792,P84
7544,C94,,35.7%,Max,494.0,P2,0.8041,P2,-5.074,P2,15.03,P6,0.5602,P2,3.720,P79,72.49,P8,209.9,P7
7544,C94,,35.7%,Min,-448.7,P3,-1.172,P3,-72.49,P8,1.222,P85,-209.9,P7,-3.577,P85,5.137,P2,2.660,P2
7544,C94,,39.3%,Max,494.0,P2,0.8041,P2,-1.402,P2,15.03,P6,-24.95,P2,3.751,P79,67.53,P8,229.5,P6
7544,C94,,39.3%,Min,-448.7,P3,-1.172,P3,-67.53,P8,1.222,P85,-229.5,P6,-3.527,P85,1.616,P2,25.08,P2
7544,C94,,42.9%,Max,494.0,P2,0.8041,P2,2.270,P2,15.03,P6,-49.03,P2,3.797,P80,62.58,P8,249.2,P6
7544,C94,,42.9%,Min,-448.7,P3,-1.172,P3,-62.58,P8,1.222,P85,-249.2,P6,-3.497,P83,2.408,P2,49.09,P2
7544,C94,,42.9%,Max,439.1,P2,0.5447,P79,24.00,P2,3.084,P79,-51.32,P2,2.714,P79,38.85,P3,250.7,P6
7544,C94,,42.9%,Min,-406.1,P3,-0.6062,P85,-38.84,P3,-4.449,P85,-250.7,P6,-2.474,P85,0.03560,P51,51.35,P2
7544,C94,,46.4%,Max,439.1,P2,0.5447,P79,27.67,P2,3.084,P79,-65.08,P2,2.560,P4,35.18,P3,250.9,P6
7544,C94,,46.4%,Min,-406.1,P3,-0.6062,P85,-35.17,P3,-4.449,P85,-250.9,P6,-2.238,P85,0.5194,P18,65.11,P2
7544,C94,,50.0%,Max,439.1,P2,0.5447,P79,31.35,P2,3.084,P79,-77.41,P2,2.449,P4,31.50,P3,249.2,P6
7544,C94,,50.0%,Min,-406.1,P3,-0.6062,P85,-31.50,P3,-4.449,P85,-249.2,P6,-2.001,P85,0.08712,P1,77.43,P2
7544,C94,,53.6%,Max,439.1,P2,0.5447,P79,35.02,P2,3.084,P79,-88.23,P4,2.337,P4,35.02,P2,245.6,P6
7544,C94,,53.6%,Min,-406.1,P3,-0.6062,P85,-27.83,P3,-4.449,P85,-245.6,P6,-1.765,P85,0.1971,P28,88.26,P4
7544,C94,,57.1%,Max,439.1,P2,0.5447,P79,38.69,P2,3.084,P79,-93.96,P60,2.226,P4,38.69,P2,240.0,P6
7544,C94,,57.1%,Min,-406.1,P3,-0.6062,P85,-24.16,P3,-4.449,P85,-240.0,P6,-1.545,P83,0.2916,P91,93.97,P60
7544,C94,,57.1%,Max,412.3,P4,0.1242,P4,60.39,P6,-2.781,P79,-93.81,P60,2.168,P4,60.39,P6,238.1,P6
7544,C94,,57.1%,Min,-381.1,P5,-0.2003,P5,-3.443,P3,-15.76,P8,-238.1,P6,-1.483,P5,2.470,P5,93.82,P60
7544,C94,,60.7%,Max,412.3,P4,0.1242,P4,65.35,P6,-2.781,P79,-84.04,P4,2.151,P4,65.35,P6,213.6,P6
7544,C94,,60.7%,Min,-381.1,P5,-0.2003,P5,0.2291,P3,-15.76,P8,-213.6,P6,-1.436,P5,0.3007,P3,84.06,P4
7544,C94,,64.3%,Max,412.3,P4,0.1242,P4,70.30,P6,-2.781,P79,-72.29,P4,2.133,P4,70.30,P6,187.4,P29
7544,C94,,64.3%,Min,-381.1,P5,-0.2003,P5,3.901,P3,-15.76,P8,-187.4,P29,-1.388,P5,3.906,P3,72.32,P4
7544,C94,,67.9%,Max,412.3,P4,0.1242,P4,75.26,P6,-2.781,P79,-59.11,P4,2.115,P4,75.26,P6,163.2,P29
7544,C94,,67.9%,Min,-381.1,P5,-0.2003,P5,7.573,P3,-15.76,P8,-163.2,P29,-1.341,P5,7.575,P3,59.15,P4
7544,C94,,71.4%,Max,412.3,P4,0.1242,P4,80.22,P6,-2.781,P79,-44.50,P4,2.097,P4,80.22,P6,137.2,P25
7544,C94,,71.4%,Min,-381.1,P5,-0.2003,P5,11.24,P3,-15.76,P8,-137.2,P25,-1.293,P5,11.25,P3,44.55,P4
7544,C94,,71.4%,Max,405.6,P4,0.9183,P83,127.3,P6,-8.812,P79,-41.50,P4,1.967,P4,127.4,P6,132.9,P25
7544,C94,,71.4%,Min,-366.1,P5,-2.232,P7,33.43,P3,-29.88,P8,-132.9,P25,-1.896,P5,33.48,P3,41.54,P4
7544,C94,,75.0%,Max,405.6,P4,0.9183,P83,132.3,P6,-8.812,P79,-5.081,P2,2.243,P4,132.3,P6,87.00,P8
7544,C94,,75.0%,Min,-366.1,P5,-2.232,P7,37.11,P3,-29.88,P8,-87.00,P8,-1.605,P5,37.14,P3,5.365,P2
7544,C94,,78.6%,Max,405.6,P4,0.9183,P83,137.3,P6,-8.812,P79,34.18,P2,2.519,P4,137.3,P6,69.06,P3
7544,C94,,78.6%,Min,-366.1,P5,-2.232,P7,40.78,P3,-29.88,P8,-69.05,P3,-1.314,P5,40.81,P3,1.023,P70
7544,C94,,82.1%,Max,405.6,P4,0.9183,P83,142.2,P6,-8.812,P79,74.88,P2,2.795,P4,142.2,P6,74.91,P2
7544,C94,,82.1%,Min,-366.1,P5,-2.232,P7,44.45,P3,-29.88,P8,-51.42,P3,-1.111,P82,44.48,P3,0.7138,P9
7544,C94,,85.7%,Max,405.6,P4,0.9183,P83,147.2,P6,-8.812,P79,117.0,P2,3.487,P7,147.2,P6,117.0,P2
7544,C94,,85.7%,Min,-366.1,P5,-2.232,P7,48.12,P3,-29.88,P8,-32.35,P3,-1.467,P82,48.15,P3,1.379,P85
7544,C94,,85.7%,Max,413.3,P4,12.14,P4,183.1,P6,-13.41,P79,122.4,P2,9.324,P4,183.2,P6,122.6,P2
7544,C94,,85.7%,Min,-358.5,P5,-4.924,P5,64.25,P3,-39.16,P8,-29.55,P3,-3.728,P5,64.28,P3,3.709,P85
7544,C94,,89.3%,Max,413.3,P4,12.14,P4,188.0,P6,-13.41,P79,173.3,P2,8.374,P4,188.1,P6,173.5,P2
7544,C94,,89.3%,Min,-358.5,P5,-4.924,P5,67.92,P3,-39.16,P8,-3.373,P3,-5.593,P5,67.95,P3,4.728,P3
7544,C94,,92.9%,Max,413.3,P4,12.14,P4,193.0,P6,-13.41,P79,244.6,P6,7.423,P4,193.1,P6,244.7,P6
7544,C94,,92.9%,Min,-358.5,P5,-4.924,P5,71.59,P3,-39.16,P8,24.24,P3,-7.457,P5,71.62,P3,24.73,P3
7544,C94,,96.4%,Max,413.3,P4,12.14,P4,198.0,P6,-13.41,P79,320.9,P6,6.472,P4,198.0,P6,320.9,P6
7544,C94,,96.4%,Min,-358.5,P5,-4.924,P5,75.27,P3,-39.16,P8,53.28,P3,-9.322,P5,75.29,P3,53.68,P3
7544,C94,4820,100.0%,Max,413.3,P4,12.14,P4,202.9,P6,-13.41,P79,399.1,P6,5.522,P4,203.0,P6,399.1,P6
7544,C94,4820,100.0%,Min,-358.5,P5,-4.924,P5,78.94,P3,-39.16,P8,83.76,P3,-11.19,P5,78.96,P3,84.15,P3
7545,C94,5113,0.0%,Max,193.5,P2,3.346,P2,-13.85,P85,3.106,P8,19.51,P2,2.188,P2,79.85,P33,53.86,P3
7545,C94,5113,0.0%,Min,-174.8,P3,-5.274,P3,-79.85,P33,0.7481,P5,-53.70,P3,-4.131,P3,14.15,P85,0.5827,P76
7545,C94,,8.3%,Max,193.5,P2,3.346,P2,-12.07,P85,3.106,P8,2.463,P2,2.837,P2,77.44,P33,62.84,P3
7545,C94,,8.3%,Min,-174.8,P3,-5.274,P3,-77.43,P33,0.7481,P5,-62.72,P3,-3.967,P3,12.41,P85,0.9950,P81
7545,C94,,16.7%,Max,193.5,P2,3.346,P2,-10.28,P85,3.106,P8,-13.83,P2,3.485,P2,75.03,P33,80.60,P9
7545,C94,,16.7%,Min,-174.8,P3,-5.274,P3,-75.02,P33,0.7481,P5,-80.60,P9,-3.803,P3,10.68,P85,14.26,P2
7545,C94,,25.0%,Max,193.5,P2,3.346,P2,-8.496,P85,3.106,P8,-29.37,P2,4.134,P2,72.62,P33,102.8,P8
7545,C94,,25.0%,Min,-174.8,P3,-5.274,P3,-72.61,P33,0.7481,P5,-102.8,P8,-3.639,P3,8.968,P85,29.66,P2
7545,C94,,33.3%,Max,193.5,P2,3.346,P2,-6.710,P85,3.106,P8,-44.16,P2,4.782,P2,70.21,P33,127.1,P8
7545,C94,,33.3%,Min,-174.8,P3,-5.274,P3,-70.20,P33,0.7481,P5,-127.1,P8,-3.475,P3,7.298,P85,44.20,P72
7545,C94,,33.3%,Max,193.1,P2,4.326,P2,73.46,P8,-0.3137,P82,-37.25,P2,3.266,P2,73.47,P8,112.0,P33
7545,C94,,33.3%,Min,-155.2,P3,-4.598,P3,10.86,P57,-3.293,P6,-112.0,P33,-3.653,P3,10.88,P57,37.39,P2
7545,C94,,41.7%,Max,193.1,P2,4.326,P2,75.88,P8,-0.3137,P82,-21.14,P2,3.477,P2,75.88,P8,86.76,P33
7545,C94,,41.7%,Min,-155.2,P3,-4.598,P3,12.65,P57,-3.293,P6,-86.76,P33,-3.748,P3,12.66,P57,21.43,P2
7545,C94,,50.0%,Max,193.1,P2,4.326,P2,78.29,P8,-0.3137,P82,-4.281,P2,3.687,P2,78.29,P8,65.04,P21
7545,C94,,50.0%,Min,-155.2,P3,-4.598,P3,14.43,P57,-3.293,P6,-65.04,P21,-3.843,P3,14.44,P57,5.649,P2
7545,C94,,58.3%,Max,193.1,P2,4.326,P2,80.70,P8,-0.3137,P82,13.33,P2,3.897,P2,80.70,P8,43.13,P21
7545,C94,,58.3%,Min,-155.2,P3,-4.598,P3,16.22,P57,-3.293,P6,-43.13,P21,-3.938,P3,16.23,P57,0.5127,P76
7545,C94,,66.7%,Max,193.1,P2,4.326,P2,83.11,P8,-0.3137,P82,31.70,P2,4.107,P2,83.11,P8,31.96,P2
7545,C94,,66.7%,Min,-155.2,P3,-4.598,P3,18.00,P57,-3.293,P6,-28.23,P57,-4.034,P3,18.01,P57,1.094,P67
7545,C94,,66.7%,Max,202.8,P2,5.908,P2,119.6,P8,2.709,P8,67.62,P13,4.549,P2,119.6,P8,67.62,P13
7545,C94,,66.7%,Min,-143.6,P3,-5.265,P3,31.12,P57,0.4881,P79,-19.40,P57,-4.276,P3,31.12,P57,4.259,P80
7545,C94,,75.0%,Max,202.8,P2,5.908,P2,122.0,P8,2.709,P8,115.0,P25,4.563,P2,122.0,P8,115.0,P25
7545,C94,,75.0%,Min,-143.6,P3,-5.265,P3,32.90,P57,0.4881,P79,-5.904,P57,-4.561,P3,32.91,P57,1.752,P45
7545,C94,,83.3%,Max,202.8,P2,5.908,P2,124.4,P8,2.709,P8,166.3,P25,4.577,P2,124.4,P8,166.3,P25
7545,C94,,83.3%,Min,-143.6,P3,-5.265,P3,34.69,P57,0.4881,P79,8.345,P57,-4.846,P3,34.69,P57,8.345,P57
7545,C94,,91.7%,Max,202.8,P2,5.908,P2,126.8,P8,2.709,P8,218.6,P25,4.591,P2,126.8,P8,218.6,P25
7545,C94,,91.7%,Min,-143.6,P3,-5.265,P3,36.48,P57,0.4881,P79,23.35,P57,-5.131,P3,36.48,P57,23.35,P57
7545,C94,4881,100.0%,Max,202.8,P2,5.908,P2,129.2,P8,2.709,P8,271.9,P25,4.604,P2,129.2,P8,271.9,P25
7545,C94,4881,100.0%,Min,-143.6,P3,-5.265,P3,38.26,P57,0.4881,P79,39.10,P57,-5.415,P3,38.27,P57,39.10,P57
7546,C94,5115,0.0%,Max,26.18,P2,4.021,P4,86.84,P2,0.01505,P4,-28.21,P2,4.017,P4,86.93,P2,163.5,P29
7546,C94,5115,0.0%,Min,-35.14,P3,-3.759,P5,5.225,P3,-0.7147,P8,-163.5,P29,-3.903,P5,6.400,P3,28.47,P2
7546,C94,,12.5%,Max,26.18,P2,4.021,P4,88.74,P2,0.01505,P4,-21.12,P2,3.727,P4,88.83,P2,127.0,P29
7546,C94,,12.5%,Min,-35.14,P3,-3.759,P5,7.128,P3,-0.7147,P8,-127.0,P29,-3.731,P5,8.030,P3,21.43,P2
7546,C94,,25.0%,Max,26.18,P2,4.021,P4,90.65,P2,0.01505,P4,-13.19,P2,3.436,P4,90.73,P2,89.35,P6
7546,C94,,25.0%,Min,-35.14,P3,-3.759,P5,9.032,P3,-0.7147,P8,-89.35,P6,-3.558,P5,9.759,P3,13.61,P2
7546,C94,,37.5%,Max,26.18,P2,4.021,P4,92.55,P2,0.01505,P4,-4.394,P2,3.153,P2,92.63,P2,51.09,P3
7546,C94,,37.5%,Min,-35.14,P3,-3.759,P5,10.94,P3,-0.7147,P8,-50.98,P3,-3.392,P3,11.54,P3,5.408,P2
7546,C94,,50.0%,Max,26.18,P2,4.021,P4,94.45,P2,0.01505,P4,5.254,P2,2.923,P2,94.54,P2,14.02,P33
7546,C94,,50.0%,Min,-35.14,P3,-3.759,P5,12.84,P3,-0.7147,P8,-14.02,P33,-3.280,P3,13.36,P3,0.5973,P48
7546,C94,,50.0%,Max,102.2,P2,3.770,P4,131.3,P25,1.885,P22,61.60,P2,3.503,P2,131.3,P25,61.70,P2
7546,C94,,50.0%,Min,-72.39,P3,-2.623,P5,34.18,P3,0.2854,P5,0.8085,P3,-2.605,P3,34.27,P3,2.728,P3
7546,C94,,62.5%,Max,102.2,P2,3.770,P4,133.9,P25,1.885,P22,111.4,P2,3.137,P4,133.9,P25,111.5,P2
7546,C94,,62.5%,Min,-72.39,P3,-2.623,P5,36.09,P3,0.2854,P5,16.67,P3,-2.754,P5,36.17,P3,16.88,P3
7546,C94,,75.0%,Max,102.2,P2,3.770,P4,136.5,P25,1.885,P22,172.0,P25,2.809,P4,136.5,P25,172.0,P25
7546,C94,,75.0%,Min,-72.39,P3,-2.623,P5,37.99,P3,0.2854,P5,33.39,P3,-2.942,P5,38.07,P3,33.50,P3
7546,C94,,87.5%,Max,102.2,P2,3.770,P4,139.0,P25,1.885,P22,233.9,P25,2.482,P4,139.0,P25,233.9,P25
7546,C94,,87.5%,Min,-72.39,P3,-2.623,P5,39.89,P3,0.2854,P5,50.96,P3,-3.131,P5,39.97,P3,51.04,P3
7546,C94,4878,100.0%,Max,102.2,P2,3.770,P4,141.6,P25,1.885,P22,296.9,P25,2.154,P4,141.6,P25,296.9,P25
7546,C94,4878,100.0%,Min,-72.39,P3,-2.623,P5,41.80,P3,0.2854,P5,69.39,P3,-3.319,P5,41.87,P3,69.45,P3
7547,C94,5110,0.0%,Max,129.4,P2,20.00,P2,110.2,P2,-3.255,P4,217.8,P21,17.26,P2,112.0,P2,217.9,P21
7547,C94,5110,0.0%,Min,-74.13,P3,-5.873,P3,-67.24,P3,-13.37,P33,34.88,P5,-3.319,P3,4.305,P91,34.91,P5
7547,C94,,12.5%,Max,129.4,P2,20.00,P2,113.6,P2,-3.255,P4,211.8,P33,14.43,P2,115.3,P2,211.8,P33
7547,C94,,12.5%,Min,-74.13,P3,-5.873,P3,-63.88,P3,-13.37,P33,42.52,P3,-5.519,P3,2.282,P92,42.88,P3
7547,C94,,25.0%,Max,129.4,P2,20.00,P2,116.9,P2,-3.255,P4,211.4,P6,11.61,P2,118.6,P2,211.4,P6
7547,C94,,25.0%,Min,-74.13,P3,-5.873,P3,-60.53,P3,-13.37,P33,50.35,P3,-7.719,P3,2.773,P93,50.94,P3
7547,C94,,37.5%,Max,129.4,P2,20.00,P2,120.3,P2,-3.255,P4,228.6,P24,8.776,P2,121.9,P2,228.6,P24
7547,C94,,37.5%,Min,-74.13,P3,-5.873,P3,-57.18,P3,-13.37,P33,59.37,P3,-9.919,P3,5.554,P93,60.19,P3
7547,C94,,50.0%,Max,129.4,P2,20.00,P2,123.6,P2,-3.255,P4,249.0,P24,5.947,P2,125.3,P2,249.0,P24
7547,C94,,50.0%,Min,-74.13,P3,-5.873,P3,-53.83,P3,-13.37,P33,69.58,P3,-12.12,P3,5.998,P66,70.32,P57
7547,C94,,50.0%,Max,113.2,P2,12.77,P2,137.2,P2,3.410,P4,253.3,P24,8.728,P2,137.8,P2,253.3,P24
7547,C94,,50.0%,Min,-28.97,P3,-2.247,P3,-33.14,P3,-5.973,P5,64.08,P3,-3.001,P3,5.226,P67,64.15,P3
7547,C94,,62.5%,Max,113.2,P2,12.77,P2,140.6,P2,3.410,P4,287.9,P24,6.817,P2,141.1,P2,287.9,P24
7547,C94,,62.5%,Min,-28.97,P3,-2.247,P3,-29.79,P3,-5.973,P5,53.34,P3,-4.838,P3,5.155,P68,53.56,P3
7547,C94,,75.0%,Max,113.2,P2,12.77,P2,143.9,P2,3.410,P4,324.2,P24,4.906,P2,144.5,P2,324.2,P24
7547,C94,,75.0%,Min,-28.97,P3,-2.247,P3,-26.44,P3,-5.973,P5,43.80,P3,-6.674,P3,2.011,P68,44.31,P3
7547,C94,,87.5%,Max,113.2,P2,12.77,P2,147.3,P2,3.410,P4,370.5,P2,3.180,P4,147.8,P2,370.5,P2
7547,C94,,87.5%,Min,-28.97,P3,-2.247,P3,-23.08,P3,-5.973,P5,35.45,P3,-8.696,P5,0.9358,P69,36.46,P3
7547,C94,4877,100.0%,Max,113.2,P2,12.77,P2,150.6,P2,3.410,P4,423.0,P2,1.745,P4,151.2,P2,423.0,P2
7547,C94,4877,100.0%,Min,-28.97,P3,-2.247,P3,-19.73,P3,-5.973,P5,28.30,P3,-11.02,P7,3.121,P69,30.13,P3
7548,C94,7119,0.0%,Max,40.63,P2,2.920,P2,71.56,P33,-1.952,P2,7.695,P6,3.150,P2,71.56,P33,7.820,P24
7548,C94,7119,0.0%,Min,-34.15,P3,-1.892,P3,22.46,P3,-5.857,P22,2.732,P5,-1.990,P3,22.54,P3,3.331,P5
7548,C94,,6.1%,Max,40.63,P2,2.920,P2,76.55,P33,-1.952,P2,36.54,P33,2.618,P2,76.55,P33,36.54,P33
7548,C94,,6.1%,Min,-34.15,P3,-1.892,P3,26.15,P3,-5.857,P22,12.79,P3,-1.862,P3,26.22,P3,12.92,P3
7548,C94,,12.2%,Max,40.63,P2,2.920,P2,81.53,P33,-1.952,P2,67.55,P33,2.086,P2,81.53,P33,67.55,P33
7548,C94,,12.2%,Min,-34.15,P3,-1.892,P3,29.85,P3,-5.857,P22,23.95,P3,-1.734,P3,29.91,P3,24.01,P3
7548,C94,,18.3%,Max,40.63,P2,2.920,P2,86.52,P33,-1.952,P2,100.5,P33,1.555,P2,86.52,P33,100.5,P33
7548,C94,,18.3%,Min,-34.15,P3,-1.892,P3,33.54,P3,-5.857,P22,36.56,P3,-1.606,P3,33.59,P3,36.59,P3
7548,C94,,24.4%,Max,40.63,P2,2.920,P2,91.51,P33,-1.952,P2,135.5,P33,1.023,P2,91.51,P33,135.5,P33
7548,C94,,24.4%,Min,-34.15,P3,-1.892,P3,37.24,P3,-5.857,P22,50.61,P3,-1.477,P3,37.28,P3,50.63,P3
7548,C94,,24.4%,Max,56.73,P2,7.214,P4,230.9,P33,-3.170,P2,157.2,P33,6.548,P4,230.9,P33,157.2,P33
7548,C94,,24.4%,Min,-45.35,P3,-4.885,P5,92.74,P3,-9.768,P22,59.22,P3,-4.461,P5,92.81,P3,59.31,P3
7548,C94,,30.6%,Max,56.73,P2,7.214,P4,235.9,P33,-3.170,P2,248.8,P33,5.714,P4,235.9,P33,248.8,P33
7548,C94,,30.6%,Min,-45.35,P3,-4.885,P5,96.43,P3,-9.768,P22,96.43,P3,-4.541,P5,96.50,P3,96.49,P3
7548,C94,,36.7%,Max,56.73,P2,7.214,P4,240.9,P33,-3.170,P2,342.4,P33,4.881,P4,240.9,P33,342.4,P33
7548,C94,,36.7%,Min,-45.35,P3,-4.885,P5,100.1,P3,-9.768,P22,135.1,P3,-4.621,P5,100.2,P3,135.1,P3
7548,C94,,42.8%,Max,56.73,P2,7.214,P4,245.9,P33,-3.170,P2,437.9,P33,4.048,P4,245.9,P33,437.9,P33
7548,C94,,42.8%,Min,-45.35,P3,-4.885,P5,103.8,P3,-9.768,P22,175.2,P3,-4.702,P5,103.9,P3,175.2,P3
7548,C94,,48.9%,Max,56.73,P2,7.214,P4,250.9,P33,-3.170,P2,535.4,P33,3.214,P4,250.9,P33,535.4,P33
7548,C94,,48.9%,Min,-45.35,P3,-4.885,P5,107.5,P3,-9.768,P22,216.7,P3,-4.782,P5,107.6,P3,216.8,P3
7548,C94,,48.9%,Max,79.26,P4,22.44,P4,329.2,P33,-0.3018,P2,568.0,P33,13.78,P4,329.2,P33,568.0,P33
7548,C94,,48.9%,Min,-57.80,P5,-18.35,P5,139.9,P3,-4.291,P3,230.4,P3,-10.80,P5,140.4,P3,230.5,P3
7548,C94,,55.0%,Max,79.26,P4,22.44,P4,334.2,P33,-0.3018,P2,698.1,P33,14.83,P4,334.2,P33,698.1,P33
7548,C94,,55.0%,Min,-57.80,P5,-18.35,P5,143.6,P3,-4.291,P3,286.1,P3,-13.46,P5,144.1,P3,286.3,P3
7548,C94,,61.1%,Max,79.26,P4,22.44,P4,339.2,P33,-0.3018,P2,830.2,P33,15.89,P4,339.2,P33,830.2,P33
7548,C94,,61.1%,Min,-57.80,P5,-18.35,P5,147.3,P3,-4.291,P3,343.3,P3,-16.13,P5,147.8,P3,343.5,P3
7548,C94,,67.2%,Max,79.26,P4,22.44,P4,344.2,P33,-0.3018,P2,964.3,P33,16.95,P4,344.2,P33,964.3,P33
7548,C94,,67.2%,Min,-57.80,P5,-18.35,P5,151.0,P3,-4.291,P3,401.9,P3,-18.79,P5,151.5,P3,402.1,P3
7548,C94,,73.3%,Max,79.26,P4,22.44,P4,349.1,P33,-0.3018,P2,1100.,P33,18.00,P4,349.1,P33,1100.,P33
7548,C94,,73.3%,Min,-57.80,P5,-18.35,P5,154.7,P3,-4.291,P3,461.9,P3,-21.45,P5,155.1,P3,462.2,P3
7548,C94,,73.3%,Max,43.70,P4,52.53,P4,286.0,P24,15.93,P24,879.8,P33,51.49,P4,286.1,P24,879.8,P33
7548,C94,,73.3%,Min,-29.24,P5,-45.61,P5,26.91,P5,6.914,P5,318.6,P5,-44.85,P5,52.95,P5,321.8,P5
7548,C94,,80.0%,Max,43.70,P4,52.53,P4,291.5,P24,15.93,P24,991.7,P33,46.92,P4,291.6,P24,991.7,P33
7548,C94,,80.0%,Min,-29.24,P5,-45.61,P5,30.93,P5,6.914,P5,389.7,P5,-43.24,P5,55.11,P5,392.1,P5
7548,C94,,86.7%,Max,43.70,P4,52.53,P4,296.9,P24,15.93,P24,1112.,P8,42.35,P4,297.0,P24,1112.,P8
7548,C94,,86.7%,Min,-29.24,P5,-45.61,P5,34.96,P5,6.914,P5,461.4,P3,-41.64,P5,57.47,P5,461.8,P3
7548,C94,,93.3%,Max,43.70,P4,52.53,P4,302.3,P24,15.93,P24,1239.,P24,37.78,P4,302.5,P24,1239.,P24
7548,C94,,93.3%,Min,-29.24,P5,-45.61,P5,38.99,P5,6.914,P5,529.1,P3,-40.03,P5,60.00,P5,529.4,P3
7548,C94,5103,100.0%,Max,43.70,P4,52.53,P4,307.8,P24,15.93,P24,1369.,P24,33.21,P4,307.9,P24,1369.,P24
7548,C94,5103,100.0%,Min,-29.24,P5,-45.61,P5,43.02,P5,6.914,P5,598.4,P3,-38.42,P5,62.70,P5,598.7,P3
7549,C94,4990,0.0%,Max,180.7,P4,48.34,P4,166.4,P4,0.02834,P4,366.3,P4,49.31,P4,270.2,P5,369.6,P4
7549,C94,4990,0.0%,Min,-136.2,P5,-43.70,P5,-266.6,P5,-1.197,P5,-218.7,P5,-44.73,P5,4.475,P41,4.898,P52
7549,C94,,25.0%,Max,180.7,P4,48.34,P4,170.8,P4,0.02834,P4,301.6,P4,46.38,P4,265.8,P5,305.2,P4
7549,C94,,25.0%,Min,-136.2,P5,-43.70,P5,-262.2,P5,-1.197,P5,-199.1,P5,-43.99,P5,3.955,P52,2.444,P52
7549,C94,,50.0%,Max,180.7,P4,48.34,P4,175.3,P4,0.02834,P4,239.0,P4,43.45,P4,261.4,P5,243.0,P4
7549,C94,,50.0%,Min,-136.2,P5,-43.70,P5,-257.7,P5,-1.197,P5,-177.5,P5,-43.25,P5,3.691,P53,1.135,P83
7549,C94,,75.0%,Max,180.7,P4,48.34,P4,179.7,P4,0.02834,P4,178.6,P4,40.52,P4,257.0,P5,183.1,P4
7549,C94,,75.0%,Min,-136.2,P5,-43.70,P5,-253.3,P5,-1.197,P5,-153.8,P5,-42.50,P5,5.895,P13,1.018,P51
7549,C94,4888,100.0%,Max,180.7,P4,48.34,P4,184.1,P4,0.02834,P4,120.2,P4,37.59,P4,252.7,P5,134.6,P5
7549,C94,4888,100.0%,Min,-136.2,P5,-43.70,P5,-248.9,P5,-1.197,P5,-127.9,P5,-41.76,P5,5.845,P16,1.636,P7
7550,C94,4889,0.0%,Max,128.3,P4,41.84,P4,-27.45,P4,3.083,P4,483.2,P33,37.55,P4,132.0,P5,483.2,P33
7550,C94,4889,0.0%,Min,-63.44,P5,-38.73,P5,-128.0,P33,-0.4178,P5,151.5,P5,-34.76,P5,50.04,P4,155.4,P5
7550,C94,,12.5%,Max,128.3,P4,41.84,P4,-24.18,P4,3.083,P4,439.5,P33,32.92,P4,128.8,P5,439.5,P33
7550,C94,,12.5%,Min,-63.44,P5,-38.73,P5,-123.6,P33,-0.4178,P5,140.2,P5,-31.21,P5,48.32,P4,143.6,P5
7550,C94,,25.0%,Max,128.3,P4,41.84,P4,-20.91,P4,3.083,P4,397.3,P33,28.30,P4,125.7,P5,397.3,P33
7550,C94,,25.0%,Min,-63.44,P5,-38.73,P5,-119.6,P5,-0.4178,P5,130.1,P5,-27.67,P5,46.77,P4,133.0,P5
7550,C94,,37.5%,Max,128.3,P4,41.84,P4,-17.64,P4,3.083,P4,356.7,P32,23.67,P4,122.6,P5,356.7,P32
7550,C94,,37.5%,Min,-63.44,P5,-38.73,P5,-116.3,P5,-0.4178,P5,121.0,P5,-24.12,P5,44.76,P2,123.4,P5
7550,C94,,50.0%,Max,128.3,P4,41.84,P4,-14.37,P4,3.083,P4,319.8,P8,19.05,P4,119.5,P5,319.8,P8
7550,C94,,50.0%,Min,-63.44,P5,-38.73,P5,-113.1,P5,-0.4178,P5,113.2,P5,-20.58,P5,42.19,P2,115.0,P5
7550,C94,,50.0%,Max,107.2,P4,35.70,P4,28.25,P4,8.874,P8,310.4,P8,21.32,P4,87.91,P5,310.5,P8
7550,C94,,50.0%,Min,-56.37,P5,-33.45,P5,-81.29,P5,2.759,P5,110.8,P5,-19.56,P5,21.25,P60,112.5,P5
7550,C94,,62.5%,Max,107.2,P4,35.70,P4,31.52,P4,8.874,P8,302.0,P8,22.72,P4,84.89,P5,302.0,P8
7550,C94,,62.5%,Min,-56.37,P5,-33.45,P5,-78.02,P5,2.759,P5,102.8,P5,-21.74,P5,18.02,P60,105.1,P5
7550,C94,,75.0%,Max,107.2,P4,35.70,P4,34.79,P4,8.874,P8,295.0,P8,24.12,P4,81.90,P5,295.0,P8
7550,C94,,75.0%,Min,-56.37,P5,-33.45,P5,-74.75,P5,2.759,P5,95.99,P5,-23.92,P5,14.80,P60,98.92,P5
7550,C94,,87.5%,Max,107.2,P4,35.70,P4,38.06,P4,8.874,P8,289.6,P8,25.52,P4,78.92,P5,289.6,P8
7550,C94,,87.5%,Min,-56.37,P5,-33.45,P5,-71.48,P5,2.759,P5,90.30,P5,-26.10,P5,11.60,P60,93.83,P3
7550,C94,5107,100.0%,Max,107.2,P4,35.70,P4,41.33,P4,8.874,P8,286.0,P24,26.92,P4,75.98,P5,286.0,P24
7550,C94,5107,100.0%,Min,-56.37,P5,-33.45,P5,-68.21,P5,2.759,P5,83.31,P3,-28.28,P5,8.120,P24,85.10,P3
7551,C94,4892,0.0%,Max,122.1,P4,37.67,P4,-31.47,P4,1.083,P4,473.4,P23,33.96,P4,136.9,P5,473.4,P23
7551,C94,4892,0.0%,Min,-69.85,P5,-39.24,P5,-131.6,P32,-2.353,P5,147.2,P5,-35.31,P5,49.09,P4,151.4,P5
7551,C94,,12.5%,Max,122.1,P4,37.67,P4,-28.20,P4,1.083,P4,428.6,P23,30.28,P4,133.8,P5,428.6,P23
7551,C94,,12.5%,Min,-69.85,P5,-39.24,P5,-127.9,P5,-2.353,P5,135.6,P5,-31.08,P5,47.06,P4,139.2,P5
7551,C94,,25.0%,Max,122.1,P4,37.67,P4,-24.93,P4,1.083,P4,385.3,P22,26.59,P4,130.7,P5,385.3,P22
7551,C94,,25.0%,Min,-69.85,P5,-39.24,P5,-124.7,P5,-2.353,P5,125.2,P5,-26.84,P5,45.17,P4,128.1,P5
7551,C94,,37.5%,Max,122.1,P4,37.67,P4,-21.66,P4,1.083,P4,343.6,P22,22.90,P4,127.6,P5,343.6,P22
7551,C94,,37.5%,Min,-69.85,P5,-39.24,P5,-121.4,P5,-2.353,P5,115.9,P5,-22.61,P5,43.46,P4,118.1,P5
7551,C94,,50.0%,Max,122.1,P4,37.67,P4,-18.39,P4,1.083,P4,303.4,P22,19.22,P4,124.5,P5,303.4,P22
7551,C94,,50.0%,Min,-69.85,P5,-39.24,P5,-118.1,P5,-2.353,P5,107.7,P5,-18.38,P5,41.42,P2,109.3,P5
7551,C94,,50.0%,Max,104.4,P4,33.61,P4,23.98,P4,-3.251,P80,294.7,P8,19.81,P4,91.76,P5,294.7,P8
7551,C94,,50.0%,Min,-57.60,P5,-34.08,P5,-85.19,P5,-9.670,P8,106.3,P5,-20.36,P5,22.20,P2,108.2,P5
7551,C94,,62.5%,Max,104.4,P4,33.61,P4,27.25,P4,-3.251,P80,284.0,P8,21.61,P4,88.73,P5,284.0,P8
7551,C94,,62.5%,Min,-57.60,P5,-34.08,P5,-81.92,P5,-9.670,P8,96.70,P5,-21.99,P5,23.52,P2,99.17,P5
7551,C94,,75.0%,Max,104.4,P4,33.61,P4,30.52,P4,-3.251,P80,274.9,P8,23.40,P4,85.72,P5,274.9,P8
7551,C94,,75.0%,Min,-57.60,P5,-34.08,P5,-78.65,P5,-9.670,P8,88.23,P5,-23.63,P5,22.27,P84,91.34,P5
7551,C94,,87.5%,Max,104.4,P4,33.61,P4,33.79,P4,-3.251,P80,267.2,P8,25.20,P4,82.73,P5,267.2,P8
7551,C94,,87.5%,Min,-57.60,P5,-34.08,P5,-75.38,P5,-9.670,P8,80.90,P5,-25.26,P5,19.10,P84,84.75,P5
7551,C94,5097,100.0%,Max,104.4,P4,33.61,P4,37.06,P4,-3.251,P80,261.1,P8,26.99,P4,79.76,P5,261.1,P8
7551,C94,5097,100.0%,Min,-57.60,P5,-34.08,P5,-72.11,P5,-9.670,P8,74.70,P5,-26.90,P5,15.44,P8,79.40,P5
7552,C94,4886,0.0%,Max,421.2,P2,21.70,P2,-90.68,P56,-2.757,P81,561.6,P8,20.73,P2,251.3,P8,561.6,P8
7552,C94,4886,0.0%,Min,-264.9,P3,-20.98,P3,-251.2,P8,-13.34,P22,140.8,P56,-21.38,P3,91.09,P56,141.1,P56
7552,C94,,8.3%,Max,421.2,P2,21.70,P2,-86.71,P56,-2.757,P81,456.8,P8,19.05,P2,245.9,P8,456.8,P8
7552,C94,,8.3%,Min,-264.9,P3,-20.98,P3,-245.9,P8,-13.34,P22,103.4,P56,-20.00,P3,87.13,P56,103.5,P56
7552,C94,,16.7%,Max,421.2,P2,21.70,P2,-82.74,P56,-2.757,P81,354.3,P8,17.38,P2,240.5,P8,354.3,P8
7552,C94,,16.7%,Min,-264.9,P3,-20.98,P3,-240.5,P8,-13.34,P22,67.68,P56,-18.63,P3,83.19,P56,67.70,P56
7552,C94,,25.0%,Max,421.2,P2,21.70,P2,-78.78,P56,-2.757,P81,254.0,P8,15.70,P2,235.2,P8,254.0,P8
7552,C94,,25.0%,Min,-264.9,P3,-20.98,P3,-235.1,P8,-13.34,P22,33.63,P56,-17.26,P3,79.24,P56,33.69,P56
7552,C94,,33.3%,Max,421.2,P2,21.70,P2,-74.81,P56,-2.757,P81,158.9,P13,14.03,P2,229.8,P8,159.0,P13
7552,C94,,33.3%,Min,-264.9,P3,-20.98,P3,-229.8,P8,-13.34,P22,1.261,P56,-15.89,P3,75.29,P56,5.622,P56
7552,C94,,33.3%,Max,390.1,P2,11.70,P2,-52.73,P56,10.66,P6,137.7,P13,11.72,P2,166.3,P8,137.8,P13
7552,C94,,33.3%,Min,-268.9,P3,-10.09,P3,-166.3,P8,0.006314,P58,-6.134,P56,-11.00,P3,52.84,P56,4.605,P55
7552,C94,,41.7%,Max,390.1,P2,11.70,P2,-48.76,P56,10.66,P6,90.06,P2,10.33,P2,161.0,P8,90.65,P2
7552,C94,,41.7%,Min,-268.9,P3,-10.09,P3,-160.9,P8,0.006314,P58,-27.53,P56,-10.29,P3,48.88,P56,1.195,P20
7552,C94,,50.0%,Max,390.1,P2,11.70,P2,-44.79,P56,10.66,P6,48.57,P2,8.939,P2,155.6,P8,51.37,P3
7552,C94,,50.0%,Min,-268.9,P3,-10.09,P3,-155.6,P8,0.006314,P58,-50.47,P3,-9.578,P3,44.92,P56,0.6247,P9
7552,C94,,58.3%,Max,390.1,P2,11.70,P2,-40.83,P56,10.66,P6,8.759,P2,7.550,P2,150.2,P8,96.92,P20
7552,C94,,58.3%,Min,-268.9,P3,-10.09,P3,-150.2,P8,0.006314,P58,-96.92,P20,-8.866,P3,40.96,P56,5.608,P4
7552,C94,,66.7%,Max,390.1,P2,11.70,P2,-36.86,P56,10.66,P6,-29.38,P2,6.162,P2,144.9,P8,142.2,P20
7552,C94,,66.7%,Min,-268.9,P3,-10.09,P3,-144.8,P8,0.006314,P58,-142.2,P20,-8.155,P3,37.01,P56,29.66,P4
7552,C94,,66.7%,Max,363.8,P2,24.29,P2,25.95,P7,-1.594,P4,-41.57,P4,18.83,P2,37.99,P85,163.3,P32
7552,C94,,66.7%,Min,-279.6,P3,-16.19,P3,-34.25,P85,-9.864,P8,-163.3,P32,-14.07,P3,4.552,P42,43.57,P4
7552,C94,,75.0%,Max,363.8,P2,24.29,P2,31.31,P7,-1.594,P4,-36.01,P4,17.46,P2,36.18,P2,153.8,P8
7552,C94,,75.0%,Min,-279.6,P3,-16.19,P3,-30.28,P85,-9.864,P8,-153.8,P8,-16.12,P3,3.812,P52,37.79,P4
7552,C94,,83.3%,Max,363.8,P2,24.29,P2,36.66,P7,-1.594,P4,-28.78,P4,16.08,P2,39.21,P2,154.9,P9
7552,C94,,83.3%,Min,-279.6,P3,-16.19,P3,-26.31,P85,-9.864,P8,-154.9,P9,-18.16,P3,4.231,P53,30.42,P4
7552,C94,,91.7%,Max,363.8,P2,24.29,P2,42.02,P7,-1.594,P4,-19.87,P4,14.71,P2,42.39,P2,155.0,P9
7552,C94,,91.7%,Min,-279.6,P3,-16.19,P3,-22.34,P85,-9.864,P8,-154.8,P9,-20.20,P3,7.246,P53,21.52,P4
7552,C94,5089,100.0%,Max,363.8,P2,24.29,P2,47.38,P7,-1.594,P4,-9.287,P4,13.34,P2,47.50,P7,153.0,P9
7552,C94,5089,100.0%,Min,-279.6,P3,-16.19,P3,-18.37,P85,-9.864,P8,-152.4,P9,-22.25,P3,9.015,P41,11.45,P4
7553,C94,4885,0.0%,Max,92.01,P2,2.771,P2,-35.62,P2,0.1295,P2,272.7,P29,2.258,P4,147.6,P29,272.7,P29
7553,C94,4885,0.0%,Min,-58.39,P3,-4.189,P3,-147.6,P29,-0.7153,P3,43.34,P3,-3.628,P5,35.73,P2,43.49,P3
7553,C94,,12.5%,Max,92.01,P2,2.771,P2,-33.72,P2,0.1295,P2,209.0,P2,2.645,P2,145.0,P29,209.1,P2
7553,C94,,12.5%,Min,-58.39,P3,-4.189,P3,-145.0,P29,-0.7153,P3,27.71,P3,-3.377,P3,33.83,P2,27.91,P3
7553,C94,,25.0%,Max,92.01,P2,2.771,P2,-31.82,P2,0.1295,P2,151.4,P2,3.084,P2,142.5,P29,151.5,P2
7553,C94,,25.0%,Min,-58.39,P3,-4.189,P3,-142.4,P29,-0.7153,P3,12.93,P3,-3.180,P3,31.94,P2,13.31,P3
7553,C94,,37.5%,Max,92.01,P2,2.771,P2,-29.91,P2,0.1295,P2,94.70,P2,3.523,P2,139.9,P29,94.77,P2
7553,C94,,37.5%,Min,-58.39,P3,-4.189,P3,-139.9,P29,-0.7153,P3,-0.9974,P3,-2.982,P3,30.04,P2,3.145,P3
7553,C94,,50.0%,Max,92.01,P2,2.771,P2,-28.01,P2,0.1295,P2,38.82,P2,3.962,P2,137.3,P29,39.02,P2
7553,C94,,50.0%,Min,-58.39,P3,-4.189,P3,-137.3,P29,-0.7153,P3,-14.07,P3,-2.785,P3,28.15,P2,2.712,P5
7553,C94,,50.0%,Max,9.537,P2,3.181,P2,-0.7010,P2,0.1480,P2,-16.66,P4,2.569,P2,104.5,P3,41.94,P32
7553,C94,,50.0%,Min,-27.29,P3,-4.354,P3,-104.4,P3,-0.2056,P3,-41.92,P32,-3.586,P3,3.258,P2,16.83,P4
7553,C94,,62.5%,Max,9.537,P2,3.181,P2,1.202,P2,0.1480,P2,-18.28,P2,2.989,P2,102.6,P3,79.35,P8
7553,C94,,62.5%,Min,-27.29,P3,-4.354,P3,-102.5,P3,-0.2056,P3,-79.35,P8,-3.480,P3,3.401,P2,18.52,P2
7553,C94,,75.0%,Max,9.537,P2,3.181,P2,3.106,P2,0.1480,P2,-17.63,P2,3.409,P2,100.7,P3,116.3,P3
7553,C94,,75.0%,Min,-27.29,P3,-4.354,P3,-100.6,P3,-0.2056,P3,-116.2,P3,-3.373,P3,4.446,P2,17.96,P2
7553,C94,,87.5%,Max,9.537,P2,3.181,P2,5.009,P2,0.1480,P2,-16.13,P2,3.830,P2,98.81,P3,160.7,P3
7553,C94,,87.5%,Min,-27.29,P3,-4.354,P3,-98.72,P3,-0.2056,P3,-160.7,P3,-3.267,P3,5.934,P2,16.58,P2
7553,C94,5091,100.0%,Max,9.537,P2,3.181,P2,6.912,P2,0.1480,P2,-13.78,P2,4.281,P4,96.91,P3,204.3,P3
7553,C94,5091,100.0%,Min,-27.29,P3,-4.354,P3,-96.81,P3,-0.2056,P3,-204.3,P3,-3.191,P5,7.609,P2,14.42,P2
7568,C94,5103,0.0%,Max,111.9,P4,4.205,P4,-12.87,P4,-1.347,P4,46.87,P4,3.501,P4,63.61,P6,47.01,P4
7568,C94,5103,0.0%,Min,-114.3,P5,-6.609,P5,-63.59,P6,-3.567,P8,-17.39,P5,-5.277,P5,13.54,P4,6.011,P58
7568,C94,,8.3%,Max,111.9,P4,4.205,P4,-11.52,P4,-1.347,P4,30.18,P4,3.420,P4,61.79,P6,30.38,P4
7568,C94,,8.3%,Min,-114.3,P5,-6.609,P5,-61.77,P6,-3.567,P8,-21.82,P5,-4.432,P5,12.26,P4,0.6229,P38
7568,C94,,16.7%,Max,111.9,P4,4.205,P4,-10.17,P4,-1.347,P4,13.92,P4,3.339,P4,59.98,P6,26.07,P5
7568,C94,,16.7%,Min,-114.3,P5,-6.609,P5,-59.95,P6,-3.567,P8,-25.82,P5,-3.587,P5,11.01,P4,1.502,P57
7568,C94,,25.0%,Max,111.9,P4,4.205,P4,-8.829,P4,-1.347,P4,-1.919,P4,3.259,P4,58.16,P6,29.98,P22
7568,C94,,25.0%,Min,-114.3,P5,-6.609,P5,-58.14,P6,-3.567,P8,-29.97,P22,-2.743,P5,9.779,P4,3.172,P2
7568,C94,,33.3%,Max,111.9,P4,4.205,P4,-7.483,P4,-1.347,P4,-15.56,P2,3.178,P4,56.35,P6,47.34,P22
7568,C94,,33.3%,Min,-114.3,P5,-6.609,P5,-56.32,P6,-3.567,P8,-47.32,P22,-1.898,P5,8.584,P4,15.67,P2
7568,C94,,33.3%,Max,137.8,P4,1.575,P4,-18.21,P4,1.697,P33,-32.07,P2,0.9817,P4,52.30,P33,76.22,P22
7568,C94,,33.3%,Min,-149.4,P5,-3.133,P5,-52.29,P33,0.5209,P3,-76.22,P22,-2.083,P5,18.28,P4,32.07,P2
7568,C94,,41.7%,Max,137.8,P4,1.575,P4,-16.86,P4,1.697,P33,-40.37,P2,1.212,P4,50.48,P33,91.97,P22
7568,C94,,41.7%,Min,-149.4,P5,-3.133,P5,-50.47,P33,0.5209,P3,-91.97,P22,-1.819,P5,16.94,P4,40.37,P2
7568,C94,,50.0%,Max,137.8,P4,1.575,P4,-15.52,P4,1.697,P33,-47.35,P4,1.443,P4,48.67,P33,107.1,P22
7568,C94,,50.0%,Min,-149.4,P5,-3.133,P5,-48.66,P33,0.5209,P3,-107.1,P22,-1.555,P5,15.60,P4,47.37,P4
7568,C94,,58.3%,Max,137.8,P4,1.575,P4,-14.17,P4,1.697,P33,-53.68,P4,1.673,P4,46.85,P33,121.9,P31
7568,C94,,58.3%,Min,-149.4,P5,-3.133,P5,-46.84,P33,0.5209,P3,-121.9,P31,-1.291,P5,14.26,P4,53.70,P4
7568,C94,,66.7%,Max,137.8,P4,1.575,P4,-12.82,P4,1.697,P33,-59.58,P4,1.904,P4,45.03,P33,136.2,P31
7568,C94,,66.7%,Min,-149.4,P5,-3.133,P5,-45.02,P33,0.5209,P3,-136.2,P31,-1.026,P5,12.92,P4,59.61,P4
7568,C94,,66.7%,Max,151.1,P4,0.9180,P2,-3.460,P4,0.7929,P4,-61.05,P4,0.7693,P2,25.71,P5,142.8,P33
7568,C94,,66.7%,Min,-177.7,P5,-0.6199,P3,-25.70,P5,-0.2120,P5,-142.8,P33,-0.6614,P3,3.540,P4,61.05,P4
7568,C94,,75.0%,Max,151.1,P4,0.9180,P2,-2.114,P4,0.7929,P4,-62.09,P4,0.6174,P2,24.36,P5,150.3,P33
7568,C94,,75.0%,Min,-177.7,P5,-0.6199,P3,-24.36,P5,-0.2120,P5,-150.3,P33,-0.6042,P3,2.242,P4,62.09,P4
7568,C94,,83.3%,Max,151.1,P4,0.9180,P2,-0.7678,P4,0.7929,P4,-62.70,P4,0.4655,P2,23.01,P5,157.2,P33
7568,C94,,83.3%,Min,-177.7,P5,-0.6199,P3,-23.01,P5,-0.2120,P5,-157.2,P33,-0.5469,P3,1.072,P4,62.70,P4
7568,C94,,91.7%,Max,151.1,P4,0.9180,P2,0.5782,P4,0.7929,P4,-62.89,P4,0.3136,P2,21.67,P5,163.5,P33
7568,C94,,91.7%,Min,-177.7,P5,-0.6199,P3,-21.66,P5,-0.2120,P5,-163.5,P33,-0.4897,P3,0.9459,P4,62.89,P4
7568,C94,4887,100.0%,Max,151.1,P4,0.9180,P2,1.924,P4,0.7929,P4,-62.65,P4,0.2231,P4,20.32,P5,169.2,P33
7568,C94,4887,100.0%,Min,-177.7,P5,-0.6199,P3,-20.32,P5,-0.2120,P5,-169.2,P33,-0.4939,P5,1.843,P2,62.65,P4
7569,C94,4888,0.0%,Max,80.06,P2,3.419,P4,17.31,P4,0.8007,P4,30.01,P4,3.262,P4,17.65,P4,32.07,P5
7569,C94,4888,0.0%,Min,-75.94,P3,-3.583,P5,-8.855,P5,-1.355,P5,-31.88,P5,-3.507,P5,0.5261,P34,0.1634,P50
7569,C94,,12.5%,Max,80.06,P2,3.419,P4,19.12,P4,0.8007,P4,26.96,P4,3.100,P4,19.42,P4,27.13,P4
7569,C94,,12.5%,Min,-75.94,P3,-3.583,P5,-7.051,P5,-1.355,P5,-24.45,P5,-3.275,P5,0.6570,P58,0.1382,P42
7569,C94,,25.0%,Max,80.06,P2,3.419,P4,20.92,P4,0.8007,P4,24.67,P4,2.937,P4,21.20,P4,24.84,P4
7569,C94,,25.0%,Min,-75.94,P3,-3.583,P5,-5.247,P5,-1.355,P5,-16.26,P5,-3.042,P5,1.837,P60,0.1740,P54
7569,C94,,37.5%,Max,80.06,P2,3.419,P4,22.73,P4,0.8007,P4,23.15,P4,2.774,P4,22.98,P4,23.31,P4
7569,C94,,37.5%,Min,-75.94,P3,-3.583,P5,-3.443,P5,-1.355,P5,-7.298,P5,-2.810,P5,2.731,P3,1.709,P81
7569,C94,,50.0%,Max,80.06,P2,3.419,P4,24.53,P4,0.8007,P4,22.40,P4,2.612,P4,24.77,P4,22.55,P4
7569,C94,,50.0%,Min,-75.94,P3,-3.583,P5,-1.639,P5,-1.355,P5,2.432,P5,-2.578,P5,1.633,P3,3.544,P5
7569,C94,,50.0%,Max,90.64,P2,5.688,P4,85.79,P6,-1.471,P4,44.64,P6,4.157,P4,85.79,P6,44.65,P6
7569,C94,,50.0%,Min,-79.61,P3,-7.211,P5,25.98,P5,-4.938,P24,18.02,P5,-5.382,P5,26.96,P5,18.80,P5
7569,C94,,62.5%,Max,90.64,P2,5.688,P4,88.22,P6,-1.471,P4,81.69,P6,4.843,P4,88.23,P6,81.69,P6
7569,C94,,62.5%,Min,-79.61,P3,-7.211,P5,27.78,P5,-4.938,P24,29.72,P5,-5.420,P5,28.70,P5,30.21,P5
7569,C94,,75.0%,Max,90.64,P2,5.688,P4,90.66,P6,-1.471,P4,119.8,P6,5.529,P4,90.66,P6,119.8,P6
7569,C94,,75.0%,Min,-79.61,P3,-7.211,P5,29.58,P5,-4.938,P24,42.19,P5,-5.457,P5,30.45,P5,42.54,P5
7569,C94,,87.5%,Max,90.64,P2,5.688,P4,93.09,P6,-1.471,P4,158.9,P6,6.215,P4,93.10,P6,158.9,P6
7569,C94,,87.5%,Min,-79.61,P3,-7.211,P5,31.39,P5,-4.938,P24,55.42,P5,-5.495,P5,32.21,P5,55.70,P5
7569,C94,5103,100.0%,Max,90.64,P2,5.688,P4,95.53,P6,-1.471,P4,199.0,P6,6.901,P4,95.53,P6,199.0,P6
7569,C94,5103,100.0%,Min,-79.61,P3,-7.211,P5,33.19,P5,-4.938,P24,69.43,P5,-5.533,P5,33.97,P5,69.65,P5
7570,C94,4893,0.0%,Max,95.67,P2,4.045,P4,5.997,P4,0.7518,P4,42.36,P4,3.989,P4,21.21,P5,42.55,P4
7570,C94,4893,0.0%,Min,-75.03,P3,-3.415,P5,-20.93,P5,-0.4764,P5,-20.71,P5,-3.302,P5,2.658,P2,1.851,P60
7570,C94,,12.5%,Max,95.67,P2,4.045,P4,7.801,P4,0.7518,P4,34.11,P4,3.624,P4,19.43,P5,34.30,P4
7570,C94,,12.5%,Min,-75.03,P3,-3.415,P5,-19.13,P5,-0.4764,P5,-18.05,P5,-3.204,P5,2.353,P60,0.9352,P61
7570,C94,,25.0%,Max,95.67,P2,4.045,P4,9.605,P4,0.7518,P4,26.62,P4,3.258,P4,17.66,P5,26.82,P4
7570,C94,,25.0%,Min,-75.03,P3,-3.415,P5,-17.32,P5,-0.4764,P5,-14.62,P5,-3.106,P5,1.295,P36,0.2253,P85
7570,C94,,37.5%,Max,95.67,P2,4.045,P4,11.41,P4,0.7518,P4,19.91,P4,2.892,P4,15.89,P5,20.11,P4
7570,C94,,37.5%,Min,-75.03,P3,-3.415,P5,-15.52,P5,-0.4764,P5,-10.42,P5,-3.009,P5,0.5175,P53,0.3192,P13
7570,C94,,50.0%,Max,95.67,P2,4.045,P4,13.21,P4,0.7518,P4,14.31,P2,2.527,P4,14.13,P5,14.36,P2
7570,C94,,50.0%,Min,-75.03,P3,-3.415,P5,-13.71,P5,-0.4764,P5,-5.809,P3,-2.911,P5,0.4486,P77,0.7618,P29
7570,C94,,50.0%,Max,104.2,P2,6.820,P4,66.43,P24,3.191,P24,22.67,P4,5.177,P4,66.46,P24,23.25,P4
7570,C94,,50.0%,Min,-77.65,P3,-5.508,P5,14.15,P5,1.176,P5,0.9100,P5,-4.068,P5,15.19,P5,4.168,P5
7570,C94,,62.5%,Max,104.2,P2,6.820,P4,68.86,P24,3.191,P24,45.00,P6,5.212,P4,68.89,P24,45.00,P6
7570,C94,,62.5%,Min,-77.65,P3,-5.508,P5,15.96,P5,1.176,P5,7.961,P5,-4.661,P5,16.88,P5,9.225,P5
7570,C94,,75.0%,Max,104.2,P2,6.820,P4,71.30,P24,3.191,P24,74.03,P6,5.247,P4,71.32,P24,74.03,P6
7570,C94,,75.0%,Min,-77.65,P3,-5.508,P5,17.76,P5,1.176,P5,15.78,P5,-5.255,P5,18.59,P5,16.63,P5
7570,C94,,87.5%,Max,104.2,P2,6.820,P4,73.74,P24,3.191,P24,104.1,P6,5.281,P4,73.76,P24,104.1,P6
7570,C94,,87.5%,Min,-77.65,P3,-5.508,P5,19.56,P5,1.176,P5,24.37,P5,-5.848,P5,20.32,P5,25.06,P5
7570,C94,5158,100.0%,Max,104.2,P2,6.820,P4,76.17,P24,3.191,P24,135.2,P6,5.316,P4,76.19,P24,135.2,P6
7570,C94,5158,100.0%,Min,-77.65,P3,-5.508,P5,21.37,P5,1.176,P5,33.72,P5,-6.441,P5,22.07,P5,34.33,P5
7571,C94,5115,0.0%,Max,266.9,P2,3.696,P2,-56.54,P93,24.21,P8,127.7,P22,3.623,P10,130.7,P22,127.8,P22
7571,C94,5115,0.0%,Min,-413.0,P3,0.1780,P3,-130.7,P22,8.488,P78,5.067,P5,0.6800,P3,56.56,P93,5.129,P5
7571,C94,,4.2%,Max,266.9,P2,3.696,P2,-54.27,P93,24.21,P8,80.55,P4,2.547,P2,127.7,P22,80.58,P4
7571,C94,,4.2%,Min,-413.0,P3,0.1780,P3,-127.6,P22,8.488,P78,-18.41,P5,-0.1776,P3,54.29,P93,5.765,P3
7571,C94,,8.3%,Max,266.9,P2,3.696,P2,-52.01,P93,24.21,P8,51.61,P4,1.851,P2,124.6,P22,51.64,P4
7571,C94,,8.3%,Min,-413.0,P3,0.1780,P3,-124.6,P22,8.488,P78,-40.97,P5,-1.035,P3,52.02,P93,0.1027,P93
7571,C94,,12.5%,Max,266.9,P2,3.696,P2,-49.74,P93,24.21,P8,23.59,P4,1.154,P2,121.6,P22,62.64,P5
7571,C94,,12.5%,Min,-413.0,P3,0.1780,P3,-121.5,P22,8.488,P78,-62.62,P5,-1.893,P3,49.76,P93,3.393,P46
7571,C94,,16.7%,Max,266.9,P2,3.696,P2,-47.48,P93,24.21,P8,-3.523,P4,0.4573,P2,118.5,P22,83.40,P5
7571,C94,,16.7%,Min,-413.0,P3,0.1780,P3,-118.4,P22,8.488,P78,-83.37,P5,-2.751,P3,47.49,P93,3.523,P4
7571,C94,,16.7%,Max,341.1,P2,0.8556,P4,-25.32,P4,14.56,P8,-7.228,P4,0.9619,P4,70.58,P22,87.12,P8
7571,C94,,16.7%,Min,-446.4,P3,-0.5124,P5,-70.58,P22,4.871,P79,-87.12,P8,-0.5500,P5,25.33,P4,7.291,P4
7571,C94,,20.8%,Max,341.1,P2,0.8556,P4,-23.05,P4,14.56,P8,-24.28,P4,0.8208,P4,67.52,P22,113.9,P8
7571,C94,,20.8%,Min,-446.4,P3,-0.5124,P5,-67.52,P22,4.871,P79,-113.9,P8,-0.5466,P5,23.07,P4,24.29,P4
7571,C94,,25.0%,Max,341.1,P2,0.8556,P4,-20.78,P4,14.56,P8,-38.43,P2,0.6797,P4,64.46,P22,139.4,P8
7571,C94,,25.0%,Min,-446.4,P3,-0.5124,P5,-64.46,P22,4.871,P79,-139.4,P8,-0.5432,P5,20.80,P4,38.44,P2
7571,C94,,29.2%,Max,341.1,P2,0.8556,P4,-18.52,P4,14.56,P8,-50.95,P2,0.6457,P2,61.40,P22,163.8,P33
7571,C94,,29.2%,Min,-446.4,P3,-0.5124,P5,-61.40,P22,4.871,P79,-163.8,P33,-0.6469,P3,18.54,P4,50.95,P2
7571,C94,,33.3%,Max,341.1,P2,0.8556,P4,-16.25,P4,14.56,P8,-62.55,P2,0.6338,P2,58.34,P22,187.1,P33
7571,C94,,33.3%,Min,-446.4,P3,-0.5124,P5,-58.34,P22,4.871,P79,-187.1,P33,-0.7727,P3,16.27,P4,62.56,P2
7571,C94,,33.3%,Max,404.2,P2,0.7313,P4,13.90,P4,0.4761,P2,-63.86,P2,0.9189,P4,13.91,P4,189.8,P33
7571,C94,,33.3%,Min,-482.2,P3,-0.6115,P5,-7.294,P5,-1.370,P3,-189.8,P33,-0.7500,P5,0.06016,P38,63.86,P2
7571,C94,,37.5%,Max,404.2,P2,0.7313,P4,16.16,P4,0.4761,P2,-64.37,P2,0.7928,P4,16.18,P4,186.6,P33
7571,C94,,37.5%,Min,-482.2,P3,-0.6115,P5,-5.028,P5,-1.370,P3,-186.6,P33,-0.6718,P5,1.227,P46,64.38,P2
7571,C94,,41.7%,Max,404.2,P2,0.7313,P4,18.43,P4,0.4761,P2,-63.97,P2,0.6666,P4,18.44,P4,182.1,P33
7571,C94,,41.7%,Min,-482.2,P3,-0.6115,P5,-2.761,P5,-1.370,P3,-182.1,P33,-0.5937,P5,1.071,P3,63.98,P2
7571,C94,,45.8%,Max,404.2,P2,0.7313,P4,20.69,P4,0.4761,P2,-62.67,P2,0.5746,P2,20.71,P4,176.4,P33
7571,C94,,45.8%,Min,-482.2,P3,-0.6115,P5,-0.4951,P5,-1.370,P3,-176.4,P33,-0.5497,P3,0.7868,P5,62.67,P2
7571,C94,,50.0%,Max,404.2,P2,0.7313,P4,22.96,P4,0.4761,P2,-60.45,P2,0.5609,P2,22.97,P4,169.4,P33
7571,C94,,50.0%,Min,-482.2,P3,-0.6115,P5,1.771,P5,-1.370,P3,-169.4,P33,-0.5841,P3,1.874,P5,60.45,P2
7571,C94,,50.0%,Max,458.2,P2,0.4146,P4,75.64,P8,-4.968,P93,-59.13,P2,0.7965,P4,75.64,P8,167.1,P33
7571,C94,,50.0%,Min,-513.7,P3,-0.2900,P5,27.51,P5,-14.81,P6,-167.1,P33,-0.6557,P5,27.52,P5,59.13,P2
7571,C94,,54.2%,Max,458.2,P2,0.4146,P4,78.70,P8,-4.968,P93,-45.04,P2,0.6831,P4,78.70,P8,136.3,P33
7571,C94,,54.2%,Min,-513.7,P3,-0.2900,P5,29.78,P5,-14.81,P6,-136.3,P33,-0.5923,P5,29.78,P5,45.04,P2
7571,C94,,58.3%,Max,458.2,P2,0.4146,P4,81.76,P8,-4.968,P93,-30.04,P2,0.6234,P2,81.76,P8,104.3,P33
7571,C94,,58.3%,Min,-513.7,P3,-0.2900,P5,32.05,P5,-14.81,P6,-104.3,P33,-0.5826,P3,32.05,P5,30.05,P2
7571,C94,,62.5%,Max,458.2,P2,0.4146,P4,84.82,P8,-4.968,P93,-14.13,P2,0.6249,P2,84.82,P8,71.12,P22
7571,C94,,62.5%,Min,-513.7,P3,-0.2900,P5,34.31,P5,-14.81,P6,-71.12,P22,-0.6341,P3,34.31,P5,14.15,P2
7571,C94,,66.7%,Max,458.2,P2,0.4146,P4,87.88,P8,-4.968,P93,3.562,P4,0.6264,P2,87.88,P8,37.38,P22
7571,C94,,66.7%,Min,-513.7,P3,-0.2900,P5,36.58,P5,-14.81,P6,-37.38,P22,-0.6856,P3,36.58,P5,2.756,P2
7571,C94,,66.7%,Max,503.6,P2,1.793,P2,124.1,P8,-5.591,P57,8.926,P4,0.9361,P2,124.1,P8,28.68,P22
7571,C94,,66.7%,Min,-539.0,P3,-1.364,P3,51.16,P46,-16.83,P24,-28.68,P22,-0.4859,P3,51.16,P46,2.629,P89
7571,C94,,70.8%,Max,503.6,P2,1.793,P2,127.1,P8,-5.591,P57,38.46,P4,1.141,P2,127.1,P8,38.47,P4
7571,C94,,70.8%,Min,-539.0,P3,-1.364,P3,53.42,P46,-16.83,P24,-3.981,P5,-0.8623,P3,53.42,P46,1.362,P3
7571,C94,,75.0%,Max,503.6,P2,1.793,P2,130.2,P8,-5.591,P57,77.77,P8,1.345,P2,130.2,P8,77.77,P8
7571,C94,,75.0%,Min,-539.0,P3,-1.364,P3,55.69,P46,-16.83,P24,20.19,P5,-1.239,P3,55.69,P46,20.21,P5
7571,C94,,79.2%,Max,503.6,P2,1.793,P2,133.2,P8,-5.591,P57,130.6,P8,1.550,P2,133.2,P8,130.6,P8
7571,C94,,79.2%,Min,-539.0,P3,-1.364,P3,57.95,P46,-16.83,P24,45.28,P5,-1.615,P3,57.95,P46,45.30,P5
7571,C94,,83.3%,Max,503.6,P2,1.793,P2,136.3,P8,-5.591,P57,184.7,P8,1.754,P2,136.3,P8,184.7,P8
7571,C94,,83.3%,Min,-539.0,P3,-1.364,P3,60.22,P46,-16.83,P24,71.27,P5,-1.992,P3,60.22,P46,71.29,P5
7571,C94,,83.3%,Max,565.9,P2,4.356,P2,128.6,P33,1.353,P4,229.0,P8,2.484,P2,128.6,P33,229.0,P8
7571,C94,,83.3%,Min,-579.7,P3,-6.078,P3,56.79,P46,-0.2647,P21,92.15,P5,-3.422,P3,56.79,P46,92.19,P5
7571,C94,,87.5%,Max,565.9,P2,4.356,P2,131.6,P33,1.353,P4,281.2,P8,3.450,P2,131.6,P33,281.2,P8
7571,C94,,87.5%,Min,-579.7,P3,-6.078,P3,59.06,P46,-0.2647,P21,116.1,P5,-3.697,P3,59.06,P46,116.2,P5
7571,C94,,91.7%,Max,565.9,P2,4.356,P2,134.7,P33,1.353,P4,334.6,P8,4.416,P2,134.7,P33,334.6,P8
7571,C94,,91.7%,Min,-579.7,P3,-6.078,P3,61.32,P46,-0.2647,P21,141.0,P5,-3.972,P3,61.32,P46,141.0,P5
7571,C94,,95.8%,Max,565.9,P2,4.356,P2,137.7,P33,1.353,P4,389.2,P8,5.382,P2,137.7,P33,389.2,P8
7571,C94,,95.8%,Min,-579.7,P3,-6.078,P3,63.59,P46,-0.2647,P21,166.8,P5,-4.248,P3,63.59,P46,166.8,P5
7571,C94,5113,100.0%,Max,565.9,P2,4.356,P2,140.8,P33,1.353,P4,445.0,P8,6.348,P2,140.8,P33,445.0,P8
7571,C94,5113,100.0%,Min,-579.7,P3,-6.078,P3,65.85,P46,-0.2647,P21,193.5,P5,-4.523,P3,65.86,P46,193.5,P5
7572,C94,4887,0.0%,Max,158.3,P4,1.507,P4,114.9,P8,1.138,P2,-48.64,P4,1.224,P2,114.9,P8,148.4,P33
7572,C94,4887,0.0%,Min,-163.0,P5,-4.967,P5,42.29,P5,-1.268,P3,-148.4,P33,-3.851,P3,42.58,P5,48.65,P4
7572,C94,,6.8%,Max,158.3,P4,1.507,P4,117.2,P8,1.138,P2,-16.97,P4,1.932,P2,117.2,P8,102.8,P33
7572,C94,,6.8%,Min,-163.0,P5,-4.967,P5,44.01,P5,-1.268,P3,-102.8,P33,-3.157,P3,44.29,P5,17.07,P4
7572,C94,,13.6%,Max,158.3,P4,1.507,P4,119.5,P8,1.138,P2,15.40,P4,2.724,P4,119.5,P8,74.33,P5
7572,C94,,13.6%,Min,-163.0,P5,-4.967,P5,45.72,P5,-1.268,P3,-74.28,P5,-2.547,P5,45.99,P5,3.492,P2
7572,C94,,20.5%,Max,158.3,P4,1.507,P4,121.8,P8,1.138,P2,48.46,P4,3.572,P4,121.8,P8,53.59,P5
7572,C94,,20.5%,Min,-163.0,P5,-4.967,P5,47.44,P5,-1.268,P3,-53.56,P5,-1.992,P5,47.70,P5,0.5024,P93
7572,C94,,27.3%,Max,158.3,P4,1.507,P4,124.1,P8,1.138,P2,82.22,P4,4.420,P4,124.1,P8,82.34,P4
7572,C94,,27.3%,Min,-163.0,P5,-4.967,P5,49.16,P5,-1.268,P3,-32.14,P5,-1.438,P5,49.41,P5,7.164,P3
7572,C94,,27.3%,Max,158.3,P4,2.442,P2,-13.67,P4,-0.5179,P57,96.90,P4,1.570,P2,69.53,P8,96.90,P4
7572,C94,,27.3%,Min,-172.4,P5,-3.764,P3,-69.53,P8,-2.031,P8,-21.43,P5,-2.852,P3,13.80,P4,5.233,P3
7572,C94,,33.3%,Max,158.3,P4,2.442,P2,-12.14,P4,-0.5179,P57,76.33,P4,1.831,P2,67.47,P8,76.34,P4
7572,C94,,33.3%,Min,-172.4,P5,-3.764,P3,-67.47,P8,-2.031,P8,-26.17,P5,-2.637,P3,12.29,P4,5.423,P3
7572,C94,,39.4%,Max,158.3,P4,2.442,P2,-10.62,P4,-0.5179,P57,56.31,P4,2.093,P2,65.41,P8,56.34,P4
7572,C94,,39.4%,Min,-172.4,P5,-3.764,P3,-65.41,P8,-2.031,P8,-30.36,P5,-2.422,P3,10.78,P4,1.662,P81
7572,C94,,45.5%,Max,158.3,P4,2.442,P2,-9.091,P4,-0.5179,P57,36.84,P4,2.354,P2,63.35,P8,36.90,P4
7572,C94,,45.5%,Min,-172.4,P5,-3.764,P3,-63.35,P8,-2.031,P8,-34.00,P5,-2.207,P3,9.282,P4,0.1502,P50
7572,C94,,51.5%,Max,158.3,P4,2.442,P2,-7.565,P4,-0.5179,P57,17.93,P4,2.615,P2,61.29,P8,37.12,P5
7572,C94,,51.5%,Min,-172.4,P5,-3.764,P3,-61.29,P8,-2.031,P8,-37.08,P5,-1.992,P3,7.794,P4,2.886,P84
7572,C94,,51.5%,Max,169.8,P4,0.2121,P2,19.05,P4,2.515,P22,6.371,P4,0.2377,P2,39.02,P5,39.28,P5
7572,C94,,51.5%,Min,-199.3,P5,-2.375,P7,-38.97,P5,0.7086,P5,-39.25,P5,-1.775,P3,2.599,P57,0.4770,P2
7572,C94,,57.6%,Max,169.8,P4,0.2121,P2,20.58,P4,2.515,P22,2.277,P4,0.5853,P2,37.49,P5,41.80,P5
7572,C94,,57.6%,Min,-199.3,P5,-2.375,P7,-37.44,P5,0.7086,P5,-41.78,P5,-1.372,P3,1.298,P57,2.297,P4
7572,C94,,63.6%,Max,169.8,P4,0.2121,P2,22.10,P4,2.515,P22,-1.268,P4,0.9329,P2,35.97,P5,43.87,P8
7572,C94,,63.6%,Min,-199.3,P5,-2.375,P7,-35.92,P5,0.7086,P5,-43.87,P8,-0.9681,P3,0.9454,P56,1.437,P4
7572,C94,,69.7%,Max,169.8,P4,0.2121,P2,23.63,P4,2.515,P22,-4.263,P4,1.280,P2,34.45,P5,48.34,P8
7572,C94,,69.7%,Min,-199.3,P5,-2.375,P7,-34.39,P5,0.7086,P5,-48.34,P8,-0.5645,P3,0.7918,P45,4.391,P4
7572,C94,,75.8%,Max,169.8,P4,0.2121,P2,25.15,P4,2.515,P22,-6.708,P4,1.653,P7,32.92,P5,52.08,P8
7572,C94,,75.8%,Min,-199.3,P5,-2.375,P7,-32.86,P5,0.7086,P5,-52.07,P8,-0.1609,P3,0.6572,P44,6.858,P4
7572,C94,,75.8%,Max,184.9,P4,0.4579,P4,42.76,P4,3.519,P30,-1.927,P4,0.4207,P4,42.76,P4,54.19,P8
7572,C94,,75.8%,Min,-231.9,P5,-4.507,P5,-13.87,P5,1.388,P3,-54.16,P8,-3.335,P5,4.292,P3,1.972,P4
7572,C94,,81.8%,Max,184.9,P4,0.4579,P4,44.29,P4,3.519,P30,13.67,P4,1.129,P4,44.29,P4,57.41,P5
7572,C94,,81.8%,Min,-231.9,P5,-4.507,P5,-12.34,P5,1.388,P3,-57.35,P5,-2.585,P5,3.664,P3,4.352,P2
7572,C94,,87.9%,Max,184.9,P4,0.4579,P4,45.81,P4,3.519,P30,29.81,P4,1.838,P4,45.81,P4,61.46,P5
7572,C94,,87.9%,Min,-231.9,P5,-4.507,P5,-10.81,P5,1.388,P3,-61.44,P5,-1.835,P5,3.616,P3,0.1187,P81
7572,C94,,93.9%,Max,184.9,P4,0.4579,P4,47.34,P4,3.519,P30,46.51,P4,2.547,P4,47.34,P4,64.98,P5
7572,C94,,93.9%,Min,-231.9,P5,-4.507,P5,-9.287,P5,1.388,P3,-64.97,P5,-1.085,P5,4.170,P3,0.8734,P44
7572,C94,5110,100.0%,Max,184.9,P4,0.4579,P4,48.86,P4,3.519,P30,63.75,P4,3.255,P4,48.87,P4,67.96,P5
7572,C94,5110,100.0%,Min,-231.9,P5,-4.507,P5,-7.761,P5,1.388,P3,-67.96,P5,-0.3346,P5,5.135,P3,1.226,P68
7573,C94,4894,0.0%,Max,172.2,P2,7.993,P4,55.49,P8,-1.776,P2,-7.942,P4,5.717,P4,55.57,P8,81.48,P32
7573,C94,4894,0.0%,Min,-154.9,P3,-2.782,P5,13.37,P5,-5.847,P22,-81.43,P32,-1.964,P5,13.66,P5,9.785,P4
7573,C94,,6.3%,Max,172.2,P2,7.993,P4,57.62,P8,-1.776,P2,8.347,P4,4.833,P4,57.69,P8,73.73,P5
7573,C94,,6.3%,Min,-154.9,P3,-2.782,P5,14.94,P5,-5.847,P22,-73.67,P5,-3.015,P5,15.20,P5,4.139,P2
7573,C94,,12.5%,Max,172.2,P2,7.993,P4,59.74,P8,-1.776,P2,25.22,P4,3.949,P4,59.81,P8,66.22,P5
7573,C94,,12.5%,Min,-154.9,P3,-2.782,P5,16.52,P5,-5.847,P22,-66.10,P5,-4.067,P5,16.75,P5,4.551,P84
7573,C94,,18.8%,Max,172.2,P2,7.993,P4,61.87,P8,-1.776,P2,42.68,P4,3.065,P4,61.94,P8,58.17,P5
7573,C94,,18.8%,Min,-154.9,P3,-2.782,P5,18.09,P5,-5.847,P22,-57.94,P5,-5.119,P5,18.30,P5,0.6669,P90
7573,C94,,25.0%,Max,172.2,P2,7.993,P4,63.99,P8,-1.776,P2,60.72,P4,2.181,P4,64.06,P8,60.76,P4
7573,C94,,25.0%,Min,-154.9,P3,-2.782,P5,19.67,P5,-5.847,P22,-49.20,P5,-6.171,P5,19.86,P5,1.249,P69
7573,C94,,25.0%,Max,174.5,P2,3.802,P2,-12.08,P4,3.641,P6,67.19,P4,3.050,P2,62.70,P8,67.24,P4
7573,C94,,25.0%,Min,-165.6,P3,-1.991,P3,-62.70,P8,1.298,P5,-43.87,P5,-1.333,P83,12.50,P4,1.682,P75
7573,C94,,31.3%,Max,174.5,P2,3.802,P2,-10.51,P4,3.641,P6,48.31,P4,2.718,P2,60.58,P8,48.36,P4
7573,C94,,31.3%,Min,-165.6,P3,-1.991,P3,-60.58,P8,1.298,P5,-48.18,P5,-1.622,P3,10.98,P4,0.2093,P66
7573,C94,,37.5%,Max,174.5,P2,3.802,P2,-8.933,P4,3.641,P6,30.00,P4,2.386,P2,58.45,P8,51.92,P5
7573,C94,,37.5%,Min,-165.6,P3,-1.991,P3,-58.45,P8,1.298,P5,-51.90,P5,-1.963,P3,9.487,P4,0.03926,P82
7573,C94,,43.8%,Max,174.5,P2,3.802,P2,-7.359,P4,3.641,P6,12.28,P4,2.054,P2,56.33,P8,55.07,P5
7573,C94,,43.8%,Min,-165.6,P3,-1.991,P3,-56.33,P8,1.298,P5,-55.04,P5,-2.303,P3,8.023,P4,2.423,P2
7573,C94,,50.0%,Max,174.5,P2,3.802,P2,-5.785,P4,3.641,P6,-4.852,P4,1.722,P2,54.20,P8,63.38,P33
7573,C94,,50.0%,Min,-165.6,P3,-1.991,P3,-54.20,P8,1.298,P5,-63.37,P33,-2.644,P3,6.609,P4,5.026,P4
7573,C94,,50.0%,Max,175.2,P2,2.345,P2,21.70,P4,0.06336,P57,-15.33,P4,1.831,P7,29.92,P5,73.39,P6
7573,C94,,50.0%,Min,-180.4,P3,-0.7126,P83,-29.92,P5,-1.723,P24,-73.37,P6,-0.5027,P83,0.9427,P43,15.42,P4
7573,C94,,56.3%,Max,175.2,P2,2.345,P2,23.28,P4,0.06336,P57,-17.63,P4,1.549,P2,28.35,P5,73.00,P6
7573,C94,,56.3%,Min,-180.4,P3,-0.7126,P83,-28.35,P5,-1.723,P24,-72.99,P6,-0.7137,P3,0.4550,P69,17.68,P4
7573,C94,,62.5%,Max,175.2,P2,2.345,P2,24.85,P4,0.06336,P57,-19.34,P4,1.291,P2,26.78,P5,73.73,P8
7573,C94,,62.5%,Min,-180.4,P3,-0.7126,P83,-26.77,P5,-1.723,P24,-73.73,P8,-1.065,P3,0.4400,P46,19.37,P4
7573,C94,,68.8%,Max,175.2,P2,2.345,P2,26.42,P4,0.06336,P57,-20.47,P4,1.034,P2,26.50,P4,74.22,P8
7573,C94,,68.8%,Min,-180.4,P3,-0.7126,P83,-25.20,P5,-1.723,P24,-74.22,P8,-1.417,P3,0.6931,P66,20.48,P4
7573,C94,,75.0%,Max,175.2,P2,2.345,P2,28.00,P4,0.06336,P57,-21.01,P4,0.7768,P2,28.07,P4,73.93,P8
7573,C94,,75.0%,Min,-180.4,P3,-0.7126,P83,-23.62,P5,-1.723,P24,-73.93,P8,-1.769,P3,0.1469,P35,21.02,P4
7573,C94,,75.0%,Max,190.8,P2,2.642,P4,47.57,P4,0.4204,P2,-19.29,P4,2.071,P4,47.64,P4,82.41,P8
7573,C94,,75.0%,Min,-216.4,P3,-2.224,P5,-7.269,P5,-1.211,P3,-82.41,P8,-1.254,P5,2.362,P3,19.40,P4
7573,C94,,81.3%,Max,190.8,P2,2.642,P4,49.14,P4,0.4204,P2,-1.400,P4,2.098,P4,49.21,P4,67.79,P8
7573,C94,,81.3%,Min,-216.4,P3,-2.224,P5,-5.695,P5,-1.211,P3,-67.79,P8,-1.437,P5,3.463,P3,2.522,P4
7573,C94,,87.5%,Max,190.8,P2,2.642,P4,50.72,P4,0.4204,P2,17.08,P4,2.125,P4,50.79,P4,68.15,P5
7573,C94,,87.5%,Min,-216.4,P3,-2.224,P5,-4.122,P5,-1.211,P3,-68.13,P5,-1.619,P5,4.683,P5,2.481,P2
7573,C94,,93.8%,Max,190.8,P2,2.642,P4,52.29,P4,0.4204,P2,36.14,P4,2.153,P4,52.36,P4,69.32,P5
7573,C94,,93.8%,Min,-216.4,P3,-2.224,P5,-2.548,P5,-1.211,P3,-69.30,P5,-1.802,P5,3.382,P5,0.7276,P44
7573,C94,5092,100.0%,Max,190.8,P2,2.642,P4,54.01,P33,0.4204,P2,55.78,P4,2.242,P2,54.01,P33,69.90,P5
7573,C94,5092,100.0%,Min,-216.4,P3,-2.224,P5,-0.9738,P5,-1.211,P3,-69.88,P5,-2.047,P3,2.427,P5,0.2640,P50
7574,C94,5091,0.0%,Max,215.5,P2,-0.4696,P2,-61.81,P4,-8.470,P80,204.0,P22,-0.8745,P2,141.8,P22,204.0,P22
7574,C94,5091,0.0%,Min,-398.6,P3,-5.635,P12,-141.7,P22,-23.72,P24,28.64,P5,-5.496,P12,61.82,P4,29.08,P5
7574,C94,,4.2%,Max,215.5,P2,-0.4696,P2,-59.54,P4,-8.470,P80,147.7,P22,0.2600,P2,138.8,P22,147.8,P22
7574,C94,,4.2%,Min,-398.6,P3,-5.635,P12,-138.7,P22,-23.72,P24,3.712,P5,-4.075,P3,59.55,P4,5.260,P5
7574,C94,,8.3%,Max,215.5,P2,-0.4696,P2,-57.28,P4,-8.470,P80,107.1,P4,1.395,P2,135.7,P22,107.1,P4
7574,C94,,8.3%,Min,-398.6,P3,-5.635,P12,-135.6,P22,-23.72,P24,-20.31,P5,-2.802,P3,57.28,P4,13.14,P3
7574,C94,,12.5%,Max,215.5,P2,-0.4696,P2,-55.01,P4,-8.470,P80,75.43,P4,2.529,P2,132.6,P22,75.46,P4
7574,C94,,12.5%,Min,-398.6,P3,-5.635,P12,-132.5,P22,-23.72,P24,-43.42,P5,-1.528,P3,55.02,P4,10.95,P77
7574,C94,,16.7%,Max,215.5,P2,-0.4696,P2,-52.74,P4,-8.470,P80,44.65,P4,3.663,P2,129.6,P22,65.62,P5
7574,C94,,16.7%,Min,-398.6,P3,-5.635,P12,-129.5,P22,-23.72,P24,-65.62,P5,-0.2545,P3,52.75,P4,1.753,P66
7574,C94,,16.7%,Max,292.4,P2,0.4645,P4,-30.15,P4,-4.901,P80,39.49,P4,0.3811,P4,82.54,P22,69.05,P5
7574,C94,,16.7%,Min,-424.1,P3,-1.024,P5,-82.54,P22,-14.40,P24,-69.04,P5,-1.142,P5,30.16,P4,1.102,P58
7574,C94,,20.8%,Max,292.4,P2,0.4645,P4,-27.89,P4,-4.901,P80,18.59,P4,0.4657,P4,79.48,P22,81.18,P5
7574,C94,,20.8%,Min,-424.1,P3,-1.024,P5,-79.48,P22,-14.40,P24,-81.17,P5,-1.002,P5,27.89,P4,16.29,P58
7574,C94,,25.0%,Max,292.4,P2,0.4645,P4,-25.62,P4,-4.901,P80,-0.5242,P2,0.5503,P4,76.42,P22,93.27,P3
7574,C94,,25.0%,Min,-424.1,P3,-1.024,P5,-76.42,P22,-14.40,P24,-93.26,P3,-0.8619,P5,25.62,P4,0.7248,P2
7574,C94,,29.2%,Max,292.4,P2,0.4645,P4,-23.35,P4,-4.901,P80,-17.62,P2,0.6497,P2,73.36,P22,121.6,P6
7574,C94,,29.2%,Min,-424.1,P3,-1.024,P5,-73.36,P22,-14.40,P24,-121.6,P6,-0.7367,P3,23.36,P4,17.63,P2
7574,C94,,33.3%,Max,292.4,P2,0.4645,P4,-21.09,P4,-4.901,P80,-33.81,P2,0.7988,P2,70.30,P22,149.6,P6
7574,C94,,33.3%,Min,-424.1,P3,-1.024,P5,-70.30,P22,-14.40,P24,-149.6,P6,-0.6612,P3,21.09,P4,33.82,P2
7574,C94,,33.3%,Max,363.7,P2,0.5058,P4,9.742,P4,1.970,P6,-36.32,P2,0.5499,P4,16.08,P5,153.4,P6
7574,C94,,33.3%,Min,-456.4,P3,-0.6961,P5,-16.06,P5,0.1230,P3,-153.4,P6,-0.8904,P5,3.265,P77,36.32,P2
7574,C94,,37.5%,Max,363.7,P2,0.5058,P4,12.01,P4,1.970,P6,-40.82,P2,0.5316,P4,13.81,P5,154.6,P6
7574,C94,,37.5%,Min,-456.4,P3,-0.6961,P5,-13.79,P5,0.1230,P3,-154.6,P6,-0.7958,P5,1.004,P77,40.82,P2
7574,C94,,41.7%,Max,363.7,P2,0.5058,P4,14.27,P4,1.970,P6,-44.41,P2,0.5133,P4,14.28,P4,154.7,P6
7574,C94,,41.7%,Min,-456.4,P3,-0.6961,P5,-11.53,P5,0.1230,P3,-154.7,P6,-0.7012,P5,0.07897,P27,44.41,P2
7574,C94,,45.8%,Max,363.7,P2,0.5058,P4,16.54,P4,1.970,P6,-47.09,P2,0.5584,P2,16.55,P4,153.5,P6
7574,C94,,45.8%,Min,-456.4,P3,-0.6961,P5,-9.261,P5,0.1230,P3,-153.5,P6,-0.6698,P3,1.031,P58,47.09,P2
7574,C94,,50.0%,Max,363.7,P2,0.5058,P4,18.81,P4,1.970,P6,-48.86,P2,0.6247,P2,18.81,P4,151.1,P6
7574,C94,,50.0%,Min,-456.4,P3,-0.6961,P5,-6.995,P5,0.1230,P3,-151.1,P6,-0.6599,P3,3.293,P58,48.86,P2
7574,C94,,50.0%,Max,428.1,P2,0.5505,P2,64.88,P6,16.56,P6,-48.69,P2,0.4634,P4,64.88,P6,150.0,P6
7574,C94,,50.0%,Min,-486.1,P3,-0.8314,P3,19.41,P5,5.992,P88,-150.0,P6,-0.7079,P5,19.42,P5,48.69,P2
7574,C94,,54.2%,Max,428.1,P2,0.5505,P2,67.94,P6,16.56,P6,-37.84,P2,0.5927,P2,67.94,P6,123.4,P6
7574,C94,,54.2%,Min,-486.1,P3,-0.8314,P3,21.68,P5,5.992,P88,-123.4,P6,-0.7245,P3,21.68,P5,37.85,P2
7574,C94,,58.3%,Max,428.1,P2,0.5505,P2,71.00,P6,16.56,P6,-26.08,P2,0.8179,P2,71.00,P6,95.48,P6
7574,C94,,58.3%,Min,-486.1,P3,-0.8314,P3,23.94,P5,5.992,P88,-95.48,P6,-0.8370,P3,23.95,P5,26.09,P2
7574,C94,,62.5%,Max,428.1,P2,0.5505,P2,74.06,P6,16.56,P6,-13.41,P2,1.043,P2,74.06,P6,66.68,P22
7574,C94,,62.5%,Min,-486.1,P3,-0.8314,P3,26.21,P5,5.992,P88,-66.68,P22,-0.9494,P3,26.21,P5,13.45,P2
7574,C94,,66.7%,Max,428.1,P2,0.5505,P2,77.12,P6,16.56,P6,0.2157,P4,1.268,P2,77.12,P6,37.08,P22
7574,C94,,66.7%,Min,-486.1,P3,-0.8314,P3,28.47,P5,5.992,P88,-37.08,P22,-1.062,P3,28.48,P5,0.9122,P4
7574,C94,,66.7%,Max,481.6,P2,2.038,P2,111.6,P8,18.63,P24,5.114,P4,0.8743,P2,111.6,P8,29.74,P22
7574,C94,,66.7%,Min,-508.1,P3,-2.797,P3,44.59,P5,6.412,P57,-29.73,P22,-1.578,P3,44.64,P5,3.977,P2
7574,C94,,70.8%,Max,481.6,P2,2.038,P2,114.6,P8,18.63,P24,33.01,P4,1.396,P2,114.6,P8,33.02,P4
7574,C94,,70.8%,Min,-508.1,P3,-2.797,P3,46.86,P5,6.412,P57,-5.404,P5,-1.796,P3,46.90,P5,2.170,P3
7574,C94,,75.0%,Max,481.6,P2,2.038,P2,117.7,P8,18.63,P24,66.50,P8,1.919,P2,117.7,P8,66.50,P8
7574,C94,,75.0%,Min,-508.1,P3,-2.797,P3,49.13,P5,6.412,P57,15.18,P5,-2.013,P3,49.17,P5,15.24,P5
7574,C94,,79.2%,Max,481.6,P2,2.038,P2,120.7,P8,18.63,P24,114.3,P8,2.441,P2,120.7,P8,114.3,P8
7574,C94,,79.2%,Min,-508.1,P3,-2.797,P3,51.39,P5,6.412,P57,36.67,P5,-2.231,P3,51.43,P5,36.70,P5
7574,C94,,83.3%,Max,481.6,P2,2.038,P2,123.8,P8,18.63,P24,163.4,P8,2.963,P2,123.8,P8,163.4,P8
7574,C94,,83.3%,Min,-508.1,P3,-2.797,P3,53.66,P5,6.412,P57,59.07,P5,-2.448,P3,53.70,P5,59.09,P5
7574,C94,,83.3%,Max,527.3,P2,3.781,P2,110.2,P8,-0.3027,P4,209.8,P8,2.253,P2,110.2,P8,209.8,P8
7574,C94,,83.3%,Min,-522.7,P3,-3.162,P3,46.82,P5,-1.712,P5,80.19,P5,-2.092,P3,46.86,P5,80.20,P5
7574,C94,,87.5%,Max,527.3,P2,3.781,P2,113.2,P8,-0.3027,P4,254.6,P8,2.445,P2,113.2,P8,254.6,P8
7574,C94,,87.5%,Min,-522.7,P3,-3.162,P3,49.08,P5,-1.712,P5,99.58,P5,-2.532,P3,49.12,P5,99.59,P5
7574,C94,,91.7%,Max,527.3,P2,3.781,P2,116.3,P8,-0.3027,P4,300.6,P8,2.637,P2,116.3,P8,300.6,P8
7574,C94,,91.7%,Min,-522.7,P3,-3.162,P3,51.35,P5,-1.712,P5,119.9,P5,-2.973,P3,51.39,P5,119.9,P5
7574,C94,,95.8%,Max,527.3,P2,3.781,P2,119.3,P8,-0.3027,P4,347.9,P8,2.829,P2,119.3,P8,347.9,P8
7574,C94,,95.8%,Min,-522.7,P3,-3.162,P3,53.62,P5,-1.712,P5,141.1,P5,-3.413,P3,53.65,P5,141.1,P5
7574,C94,5089,100.0%,Max,527.3,P2,3.781,P2,122.4,P8,-0.3027,P4,396.4,P8,3.021,P2,122.4,P8,396.4,P8
7574,C94,5089,100.0%,Min,-522.7,P3,-3.162,P3,55.88,P5,-1.712,P5,163.2,P5,-3.854,P3,55.92,P5,163.2,P5
7575,C94,4790,0.0%,Max,97.90,P2,4.459,P2,61.26,P9,-1.993,P79,-254.2,P79,3.852,P2,61.27,P9,673.3,P8
7575,C94,4790,0.0%,Min,-163.1,P3,-1.724,P3,-0.1000,P3,-4.987,P8,-673.3,P8,-1.759,P3,1.727,P3,254.2,P79
7575,C94,,6.3%,Max,97.90,P2,4.459,P2,64.14,P9,-1.993,P79,-252.0,P79,3.111,P2,64.15,P9,651.1,P8
7575,C94,,6.3%,Min,-163.1,P3,-1.724,P3,2.033,P3,-4.987,P8,-651.1,P8,-2.051,P3,2.665,P3,252.0,P79
7575,C94,,12.5%,Max,97.90,P2,4.459,P2,67.02,P9,-1.993,P79,-249.0,P79,2.370,P2,67.03,P9,627.9,P8
7575,C94,,12.5%,Min,-163.1,P3,-1.724,P3,4.165,P3,-4.987,P8,-627.9,P8,-2.342,P3,4.508,P3,249.0,P79
7575,C94,,18.8%,Max,97.90,P2,4.459,P2,69.90,P9,-1.993,P79,-245.3,P79,1.629,P2,69.91,P9,603.6,P8
7575,C94,,18.8%,Min,-163.1,P3,-1.724,P3,6.298,P3,-4.987,P8,-603.6,P8,-2.634,P3,6.529,P3,245.3,P79
7575,C94,,25.0%,Max,97.90,P2,4.459,P2,72.77,P9,-1.993,P79,-240.7,P76,0.8875,P2,72.79,P9,578.2,P8
7575,C94,,25.0%,Min,-163.1,P3,-1.724,P3,8.430,P3,-4.987,P8,-578.2,P8,-2.926,P3,8.605,P3,240.7,P76
7575,C94,,25.0%,Max,103.5,P2,4.381,P2,153.3,P8,-0.5781,P2,-233.2,P76,3.590,P2,153.3,P8,556.0,P8
7575,C94,,25.0%,Min,-162.1,P3,-3.223,P3,44.50,P79,-1.863,P24,-556.0,P8,-2.873,P3,44.53,P79,233.2,P76
7575,C94,,31.3%,Max,103.5,P2,4.381,P2,156.2,P8,-0.5781,P2,-214.1,P76,3.194,P2,156.2,P8,497.6,P8
7575,C94,,31.3%,Min,-162.1,P3,-3.223,P3,46.63,P79,-1.863,P24,-497.6,P8,-2.914,P3,46.66,P79,214.1,P76
7575,C94,,37.5%,Max,103.5,P2,4.381,P2,159.0,P8,-0.5781,P2,-193.3,P2,2.798,P2,159.0,P8,438.1,P8
7575,C94,,37.5%,Min,-162.1,P3,-3.223,P3,48.76,P79,-1.863,P24,-438.1,P8,-2.956,P3,48.80,P79,193.3,P2
7575,C94,,43.8%,Max,103.5,P2,4.381,P2,161.9,P8,-0.5781,P2,-166.6,P2,2.402,P2,161.9,P8,383.4,P31
7575,C94,,43.8%,Min,-162.1,P3,-3.223,P3,50.90,P79,-1.863,P24,-383.4,P31,-2.997,P3,50.93,P79,166.6,P2
7575,C94,,50.0%,Max,103.5,P2,4.381,P2,164.8,P8,-0.5781,P2,-134.1,P84,2.006,P2,164.8,P8,328.0,P31
7575,C94,,50.0%,Min,-162.1,P3,-3.223,P3,53.03,P79,-1.863,P24,-328.0,P31,-3.038,P3,53.06,P79,134.1,P84
7575,C94,,50.0%,Max,110.4,P2,3.884,P2,272.4,P8,-2.532,P2,-119.6,P84,2.935,P2,272.4,P8,305.5,P31
7575,C94,,50.0%,Min,-159.2,P3,-4.437,P3,96.85,P79,-7.091,P8,-305.5,P31,-3.613,P3,96.87,P79,119.6,P84
7575,C94,,56.2%,Max,110.4,P2,3.884,P2,275.3,P8,-2.532,P2,-62.19,P2,2.979,P2,275.3,P8,208.4,P6
7575,C94,,56.2%,Min,-159.2,P3,-4.437,P3,98.98,P79,-7.091,P8,-208.4,P6,-3.448,P3,99.01,P79,62.26,P2
7575,C94,,62.5%,Max,110.4,P2,3.884,P2,278.2,P8,-2.532,P2,0.5693,P2,3.023,P2,278.2,P8,111.5,P7
7575,C94,,62.5%,Min,-159.2,P3,-4.437,P3,101.1,P79,-7.091,P8,-111.5,P7,-3.283,P3,101.1,P79,3.076,P2
7575,C94,,68.7%,Max,110.4,P2,3.884,P2,281.0,P8,-2.532,P2,64.13,P2,3.067,P2,281.0,P8,64.21,P2
7575,C94,,68.7%,Min,-159.2,P3,-4.437,P3,103.2,P79,-7.091,P8,-54.62,P3,-3.118,P3,103.3,P79,0.5004,P10
7575,C94,,75.0%,Max,110.4,P2,3.884,P2,283.9,P8,-2.532,P2,135.7,P9,3.112,P2,283.9,P8,135.7,P9
7575,C94,,75.0%,Min,-159.2,P3,-4.437,P3,105.4,P79,-7.091,P8,-8.193,P3,-2.953,P3,105.4,P79,1.503,P79
7575,C94,,75.0%,Max,106.1,P2,9.284,P55,335.1,P8,-4.175,P48,165.6,P9,8.136,P55,335.3,P8,165.9,P9
7575,C94,,75.0%,Min,-134.3,P3,-16.80,P3,121.7,P55,-14.20,P31,3.186,P3,-13.43,P3,121.9,P79,12.20,P79
7575,C94,,81.2%,Max,106.1,P2,9.284,P55,337.9,P8,-4.175,P48,287.6,P8,6.920,P2,338.1,P8,287.7,P8
7575,C94,,81.2%,Min,-134.3,P3,-16.80,P3,123.9,P55,-14.20,P31,55.98,P3,-11.28,P3,124.1,P79,57.10,P79
7575,C94,,87.5%,Max,106.1,P2,9.284,P55,340.8,P8,-4.175,P48,415.7,P8,8.667,P2,341.0,P8,415.7,P8
7575,C94,,87.5%,Min,-134.3,P3,-16.80,P3,126.0,P55,-14.20,P31,104.2,P79,-9.132,P3,126.2,P79,104.2,P79
7575,C94,,93.7%,Max,106.1,P2,9.284,P55,343.7,P8,-4.175,P48,545.0,P8,10.41,P2,343.9,P8,545.0,P8
7575,C94,,93.7%,Min,-134.3,P3,-16.80,P3,128.1,P55,-14.20,P31,152.1,P79,-6.985,P3,128.3,P79,152.2,P79
7575,C94,4850,100.0%,Max,106.1,P2,9.284,P55,346.6,P8,-4.175,P48,675.3,P8,12.16,P2,346.8,P8,675.3,P8
7575,C94,4850,100.0%,Min,-134.3,P3,-16.80,P3,130.2,P55,-14.20,P31,200.9,P79,-5.884,P55,130.5,P79,201.0,P79
7576,C94,5987,0.0%,Max,379.6,P2,1.588,P2,17.08,P2,-0.8064,P85,101.9,P2,2.292,P2,82.34,P3,101.9,P2
7576,C94,5987,0.0%,Min,-492.5,P3,-4.506,P3,-82.22,P3,-6.760,P6,-87.15,P3,-4.566,P3,8.042,P84,2.073,P58
7576,C94,,6.2%,Max,379.6,P2,1.588,P2,19.02,P2,-0.8064,P85,73.95,P2,2.167,P2,80.40,P3,81.05,P3
7576,C94,,6.2%,Min,-492.5,P3,-4.506,P3,-80.27,P3,-6.760,P6,-80.98,P3,-3.437,P3,6.204,P84,1.127,P53
7576,C94,,12.5%,Max,379.6,P2,1.588,P2,20.97,P2,-0.8064,P85,46.68,P2,2.043,P2,78.46,P3,74.17,P3
7576,C94,,12.5%,Min,-492.5,P3,-4.506,P3,-78.33,P3,-6.760,P6,-74.13,P3,-2.308,P3,4.457,P84,0.3541,P66
7576,C94,,18.7%,Max,379.6,P2,1.588,P2,22.91,P2,-0.8064,P85,20.09,P2,1.918,P2,76.51,P3,66.63,P3
7576,C94,,18.7%,Min,-492.5,P3,-4.506,P3,-76.38,P3,-6.760,P6,-66.61,P3,-1.179,P3,2.968,P84,1.411,P80
7576,C94,,25.0%,Max,379.6,P2,1.588,P2,24.86,P2,-0.8064,P85,-5.836,P2,2.012,P21,74.57,P3,63.21,P8
7576,C94,,25.0%,Min,-492.5,P3,-4.506,P3,-74.44,P3,-6.760,P6,-63.18,P8,-0.05383,P5,2.304,P84,6.105,P2
7576,C94,,25.0%,Max,392.3,P2,1.383,P2,34.43,P2,0.7775,P85,-10.98,P2,2.074,P2,62.61,P3,65.56,P8
7576,C94,,25.0%,Min,-512.4,P3,-1.165,P3,-62.60,P3,-1.827,P6,-65.56,P8,-2.080,P3,1.347,P82,11.17,P2
7576,C94,,31.2%,Max,392.3,P2,1.383,P2,36.37,P2,0.7775,P85,-10.03,P2,1.768,P2,60.67,P3,72.36,P8
7576,C94,,31.2%,Min,-512.4,P3,-1.165,P3,-60.66,P3,-1.827,P6,-72.36,P8,-1.849,P3,0.5948,P86,10.19,P2
7576,C94,,37.5%,Max,392.3,P2,1.383,P2,38.32,P2,0.7775,P85,-8.422,P2,1.462,P2,58.72,P3,83.86,P30
7576,C94,,37.5%,Min,-512.4,P3,-1.165,P3,-58.71,P3,-1.827,P6,-83.86,P30,-1.618,P3,0.6651,P40,8.548,P2
7576,C94,,43.7%,Max,392.3,P2,1.383,P2,40.26,P2,0.7775,P85,-6.139,P2,1.156,P2,56.78,P3,95.86,P30
7576,C94,,43.7%,Min,-512.4,P3,-1.165,P3,-56.77,P3,-1.827,P6,-95.86,P30,-1.387,P3,0.4740,P93,6.247,P2
7576,C94,,50.0%,Max,392.3,P2,1.383,P2,42.21,P2,0.7775,P85,-3.187,P2,0.8506,P2,54.83,P3,107.0,P30
7576,C94,,50.0%,Min,-512.4,P3,-1.165,P3,-54.82,P3,-1.827,P6,-107.0,P30,-1.156,P3,1.338,P92,3.299,P2
7576,C94,,50.0%,Max,398.9,P2,3.456,P2,79.78,P2,29.33,P8,-0.4303,P2,4.170,P2,79.85,P2,109.8,P30
7576,C94,,50.0%,Min,-542.9,P3,-2.120,P3,-18.93,P3,11.78,P55,-109.8,P30,-3.859,P3,1.510,P78,4.193,P2
7576,C94,,56.2%,Max,398.9,P2,3.456,P2,81.72,P2,29.33,P8,27.32,P2,3.383,P2,81.80,P2,102.8,P3
7576,C94,,56.2%,Min,-542.9,P3,-2.120,P3,-16.98,P3,11.78,P55,-102.7,P3,-3.532,P3,1.523,P54,3.540,P84
7576,C94,,62.5%,Max,398.9,P2,3.456,P2,83.67,P2,29.33,P8,55.75,P2,2.596,P2,83.74,P2,108.2,P3
7576,C94,,62.5%,Min,-542.9,P3,-2.120,P3,-15.04,P3,11.78,P55,-108.2,P3,-3.205,P3,1.498,P55,3.768,P36
7576,C94,,68.7%,Max,398.9,P2,3.456,P2,85.61,P2,29.33,P8,84.84,P2,1.809,P2,85.68,P2,113.0,P3
7576,C94,,68.7%,Min,-542.9,P3,-2.120,P3,-13.09,P3,11.78,P55,-113.0,P3,-2.878,P3,2.783,P55,0.7831,P93
7576,C94,,75.0%,Max,398.9,P2,3.456,P2,87.56,P2,29.33,P8,114.6,P2,1.022,P2,87.62,P2,117.1,P3
7576,C94,,75.0%,Min,-542.9,P3,-2.120,P3,-11.15,P3,11.78,P55,-117.1,P3,-2.551,P3,4.562,P55,0.4979,P62
7576,C94,,75.0%,Max,365.3,P2,34.73,P2,93.73,P8,29.03,P8,122.1,P2,19.87,P2,98.95,P2,123.7,P2
7576,C94,,75.0%,Min,-574.9,P3,-26.88,P3,-0.8183,P3,11.71,P80,-117.7,P3,-18.50,P3,17.71,P56,3.036,P63
7576,C94,,81.3%,Max,365.3,P2,34.73,P2,96.35,P8,29.03,P8,154.3,P2,20.08,P2,100.8,P2,155.6,P2
7576,C94,,81.3%,Min,-574.9,P3,-26.88,P3,1.126,P3,11.71,P80,-117.7,P3,-21.41,P3,19.49,P56,1.341,P34
7576,C94,,87.5%,Max,365.3,P2,34.73,P2,98.98,P8,29.03,P8,187.2,P2,20.28,P2,102.6,P2,188.3,P2
7576,C94,,87.5%,Min,-574.9,P3,-26.88,P3,3.071,P3,11.71,P80,-116.9,P3,-24.32,P3,21.29,P56,2.067,P20
7576,C94,,93.8%,Max,365.3,P2,34.73,P2,101.6,P8,29.03,P8,220.8,P2,20.48,P2,104.4,P2,221.7,P2
7576,C94,,93.8%,Min,-574.9,P3,-26.88,P3,5.016,P3,11.71,P80,-115.5,P3,-27.23,P3,22.84,P54,5.372,P45
7576,C94,7607,100.0%,Max,365.3,P2,34.73,P2,104.2,P8,29.03,P8,255.0,P2,20.69,P2,106.3,P2,255.8,P2
7576,C94,7607,100.0%,Min,-574.9,P3,-26.88,P3,6.960,P3,11.71,P80,-113.4,P3,-30.13,P3,24.37,P54,3.186,P44
7578,C94,7714,0.0%,Max,77.30,P4,1.382,P46,-55.35,P82,0.07211,P2,220.8,P6,1.371,P46,144.8,P6,220.8,P6
7578,C94,7714,0.0%,Min,-47.30,P58,-3.865,P5,-144.7,P6,-1.400,P9,58.46,P82,-3.356,P5,55.35,P82,58.46,P82
7578,C94,,8.3%,Max,77.30,P4,1.382,P46,-53.27,P82,0.07211,P2,168.2,P6,1.409,P4,142.0,P6,168.2,P6
7578,C94,,8.3%,Min,-47.30,P58,-3.865,P5,-141.9,P6,-1.400,P9,38.52,P82,-2.590,P5,53.27,P82,38.52,P82
7578,C94,,16.7%,Max,77.30,P4,1.382,P46,-51.20,P82,0.07211,P2,117.9,P7,1.719,P4,139.2,P6,117.9,P7
7578,C94,,16.7%,Min,-47.30,P58,-3.865,P5,-139.1,P6,-1.400,P9,19.34,P82,-1.824,P5,51.20,P82,19.34,P82
7578,C94,,25.0%,Max,77.30,P4,1.382,P46,-49.13,P82,0.07211,P2,71.31,P7,2.029,P4,136.4,P6,71.32,P7
7578,C94,,25.0%,Min,-47.30,P58,-3.865,P5,-136.3,P6,-1.400,P9,0.9237,P82,-1.058,P5,49.13,P82,0.9401,P82
7578,C94,,33.3%,Max,77.30,P4,1.382,P46,-47.05,P82,0.07211,P2,35.03,P81,2.340,P4,133.6,P6,35.04,P81
7578,C94,,33.3%,Min,-47.30,P58,-3.865,P5,-133.5,P6,-1.400,P9,-16.73,P82,-0.8030,P58,47.05,P82,0.5558,P40
7578,C94,,33.3%,Max,54.89,P4,2.328,P70,-19.88,P66,1.705,P23,27.06,P81,1.784,P2,57.59,P6,27.08,P81
7578,C94,,33.3%,Min,-34.03,P58,-3.170,P3,-57.59,P6,0.2267,P55,-21.95,P9,-2.527,P3,19.90,P66,0.1367,P44
7578,C94,,41.7%,Max,54.89,P4,2.328,P70,-17.81,P66,1.705,P23,15.39,P81,1.874,P2,54.79,P6,38.98,P9
7578,C94,,41.7%,Min,-34.03,P58,-3.170,P3,-54.79,P6,0.2267,P55,-38.97,P9,-2.213,P3,17.83,P66,0.2093,P37
7578,C94,,50.0%,Max,54.89,P4,2.328,P70,-15.74,P66,1.705,P23,4.486,P81,1.965,P2,51.99,P6,55.95,P8
7578,C94,,50.0%,Min,-34.03,P58,-3.170,P3,-51.99,P6,0.2267,P55,-55.95,P8,-1.899,P3,15.76,P66,0.6600,P71
7578,C94,,58.3%,Max,54.89,P4,2.328,P70,-13.66,P66,1.705,P23,-5.658,P81,2.055,P2,49.19,P6,73.01,P8
7578,C94,,58.3%,Min,-34.03,P58,-3.170,P3,-49.19,P6,0.2267,P55,-73.00,P8,-1.585,P3,13.69,P66,5.687,P81
7578,C94,,66.7%,Max,54.89,P4,2.328,P70,-11.59,P66,1.705,P23,-15.04,P81,2.145,P2,46.39,P6,89.05,P8
7578,C94,,66.7%,Min,-34.03,P58,-3.170,P3,-46.39,P6,0.2267,P55,-89.04,P8,-1.704,P70,11.62,P66,15.08,P81
7578,C94,,66.7%,Max,30.97,P7,3.376,P70,50.12,P30,1.611,P7,-19.09,P81,2.796,P70,50.12,P30,85.72,P8
7578,C94,,66.7%,Min,-18.92,P58,-3.929,P3,10.40,P77,-0.3808,P84,-85.71,P8,-2.482,P3,10.74,P77,19.25,P81
7578,C94,,75.0%,Max,30.97,P7,3.376,P70,52.92,P30,1.611,P7,-14.83,P81,2.654,P2,52.92,P30,67.26,P8
7578,C94,,75.0%,Min,-18.92,P58,-3.929,P3,12.47,P77,-0.3808,P84,-67.25,P8,-2.412,P3,12.76,P77,14.91,P81
7578,C94,,83.3%,Max,30.97,P7,3.376,P70,55.71,P30,1.611,P7,-9.806,P81,2.880,P2,55.72,P30,47.77,P8
7578,C94,,83.3%,Min,-18.92,P58,-3.929,P3,14.54,P77,-0.3808,P84,-47.77,P8,-2.342,P3,14.79,P77,9.827,P81
7578,C94,,91.7%,Max,30.97,P7,3.376,P70,58.51,P30,1.611,P7,-4.019,P81,3.105,P2,58.52,P30,27.29,P8
7578,C94,,91.7%,Min,-18.92,P58,-3.929,P3,16.62,P77,-0.3808,P84,-27.26,P8,-2.272,P3,16.83,P77,4.028,P81
7578,C94,7713,100.0%,Max,30.97,P7,3.376,P70,61.31,P30,1.611,P7,2.710,P79,3.331,P2,61.31,P30,7.013,P9
7578,C94,7713,100.0%,Min,-18.92,P58,-3.929,P3,18.69,P77,-0.3808,P84,-6.523,P9,-2.202,P3,18.88,P77,0.2256,P43
7579,C94,7715,0.0%,Max,109.3,P4,3.678,P55,-53.92,P57,-0.4837,P55,184.6,P22,3.246,P55,146.0,P22,184.6,P22
7579,C94,7715,0.0%,Min,-55.55,P58,-4.067,P61,-146.0,P22,-2.029,P8,60.28,P57,-3.813,P61,53.94,P57,60.29,P57
7579,C94,,6.3%,Max,109.3,P4,3.678,P55,-51.75,P57,-0.4837,P55,128.9,P22,1.829,P55,143.1,P22,128.9,P22
7579,C94,,6.3%,Min,-55.55,P58,-4.067,P61,-143.0,P22,-2.029,P8,39.43,P69,-2.885,P5,51.76,P57,39.43,P69
7579,C94,,12.5%,Max,109.3,P4,3.678,P55,-49.57,P57,-0.4837,P55,74.33,P22,1.683,P4,140.1,P22,74.33,P22
7579,C94,,12.5%,Min,-55.55,P58,-4.067,P61,-140.1,P22,-2.029,P8,18.30,P69,-2.400,P5,49.59,P57,18.31,P69
7579,C94,,18.8%,Max,109.3,P4,3.678,P55,-47.39,P57,-0.4837,P55,21.37,P10,2.159,P4,137.2,P22,21.37,P10
7579,C94,,18.8%,Min,-55.55,P58,-4.067,P61,-137.2,P22,-2.029,P8,-3.757,P3,-1.915,P5,47.41,P57,0.3449,P45
7579,C94,,25.0%,Max,109.3,P4,3.678,P55,-45.21,P57,-0.4837,P55,-7.123,P46,2.634,P4,134.2,P22,36.98,P8
7579,C94,,25.0%,Min,-55.55,P58,-4.067,P61,-134.2,P22,-2.029,P8,-36.96,P8,-2.424,P55,45.24,P57,7.132,P46
7579,C94,,25.0%,Max,97.92,P4,3.488,P55,-21.31,P81,0.2743,P67,-14.23,P71,3.200,P55,71.35,P22,55.27,P8
7579,C94,,25.0%,Min,-51.37,P58,-3.821,P61,-71.34,P22,-0.3533,P5,-55.21,P8,-3.558,P85,21.35,P81,14.26,P71
7579,C94,,31.2%,Max,97.92,P4,3.488,P55,-19.13,P81,0.2743,P67,-22.90,P71,1.856,P55,68.42,P22,81.89,P8
7579,C94,,31.2%,Min,-51.37,P58,-3.821,P61,-68.40,P22,-0.3533,P5,-81.87,P8,-2.440,P5,19.18,P81,22.91,P71
7579,C94,,37.5%,Max,97.92,P4,3.488,P55,-16.96,P81,0.2743,P67,-30.74,P71,1.515,P4,65.48,P22,107.4,P8
7579,C94,,37.5%,Min,-51.37,P58,-3.821,P61,-65.47,P22,-0.3533,P5,-107.4,P8,-1.918,P5,17.01,P81,30.75,P71
7579,C94,,43.7%,Max,97.92,P4,3.488,P55,-14.78,P81,0.2743,P67,-37.74,P71,1.888,P4,62.54,P22,131.8,P8
7579,C94,,43.7%,Min,-51.37,P58,-3.821,P61,-62.53,P22,-0.3533,P5,-131.8,P8,-1.397,P5,14.84,P81,37.74,P71
7579,C94,,50.0%,Max,97.92,P4,3.488,P55,-12.60,P81,0.2743,P67,-43.60,P73,2.356,P61,59.60,P22,155.1,P8
7579,C94,,50.0%,Min,-51.37,P58,-3.821,P61,-59.59,P22,-0.3533,P5,-155.1,P8,-2.176,P55,12.67,P81,43.60,P73
7579,C94,,50.0%,Max,89.13,P4,2.293,P55,65.89,P6,1.703,P22,-42.33,P73,2.006,P55,65.91,P6,154.8,P8
7579,C94,,50.0%,Min,-47.80,P58,-3.255,P13,18.55,P58,0.2979,P81,-154.7,P8,-2.737,P13,18.56,P58,42.33,P73
7579,C94,,56.2%,Max,89.13,P4,2.293,P55,68.83,P6,1.703,P22,-29.69,P77,1.122,P55,68.85,P6,130.8,P8
7579,C94,,56.2%,Min,-47.80,P58,-3.255,P13,20.73,P58,0.2979,P81,-130.8,P8,-2.134,P3,20.74,P58,29.69,P77
7579,C94,,62.5%,Max,89.13,P4,2.293,P55,71.77,P6,1.703,P22,-16.18,P77,1.352,P2,71.78,P6,105.7,P8
7579,C94,,62.5%,Min,-47.80,P58,-3.255,P13,22.91,P58,0.2979,P81,-105.7,P8,-1.556,P3,22.91,P58,16.18,P77
7579,C94,,68.7%,Max,89.13,P4,2.293,P55,74.71,P6,1.703,P22,-1.839,P77,1.767,P2,74.72,P6,79.49,P8
7579,C94,,68.7%,Min,-47.80,P58,-3.255,P13,25.08,P58,0.2979,P81,-79.48,P8,-0.9775,P3,25.09,P58,1.910,P77
7579,C94,,75.0%,Max,89.13,P4,2.293,P55,77.65,P6,1.703,P22,13.71,P81,2.282,P13,77.66,P6,52.67,P9
7579,C94,,75.0%,Min,-47.80,P58,-3.255,P13,27.26,P58,0.2979,P81,-52.64,P9,-1.529,P55,27.27,P58,1.171,P78
7579,C94,,75.0%,Max,84.79,P4,1.675,P55,142.6,P6,0.2432,P82,22.50,P81,1.344,P55,142.6,P6,36.78,P9
7579,C94,,75.0%,Min,-46.41,P58,-4.142,P3,50.87,P58,-0.3986,P81,-36.70,P9,-3.193,P3,50.88,P58,1.192,P48
7579,C94,,81.2%,Max,84.79,P4,1.675,P55,145.5,P6,0.2432,P82,51.53,P7,1.460,P2,145.6,P6,51.53,P7
7579,C94,,81.2%,Min,-46.41,P58,-4.142,P3,53.05,P58,-0.3986,P81,-8.243,P90,-2.595,P3,53.05,P58,1.612,P64
7579,C94,,87.5%,Max,84.79,P4,1.675,P55,148.5,P6,0.2432,P82,103.5,P7,2.073,P2,148.5,P6,103.5,P7
7579,C94,,87.5%,Min,-46.41,P58,-4.142,P3,55.23,P58,-0.3986,P81,12.94,P82,-1.997,P3,55.23,P58,12.94,P82
7579,C94,,93.7%,Max,84.79,P4,1.675,P55,151.4,P6,0.2432,P82,158.2,P6,2.686,P2,151.4,P6,158.2,P6
7579,C94,,93.7%,Min,-46.41,P58,-4.142,P3,57.40,P58,-0.3986,P81,34.78,P82,-1.399,P3,57.41,P58,34.78,P82
7579,C94,7714,100.0%,Max,84.79,P4,1.675,P55,154.4,P6,0.2432,P82,217.1,P6,3.299,P2,154.4,P6,217.2,P6
7579,C94,7714,100.0%,Min,-46.41,P58,-4.142,P3,59.58,P58,-0.3986,P81,57.45,P82,-1.238,P55,59.58,P58,57.46,P82
7580,C94,7716,0.0%,Max,138.1,P4,2.625,P2,-61.43,P46,-0.4693,P61,196.0,P8,2.619,P55,151.2,P33,196.0,P8
7580,C94,7716,0.0%,Min,-61.50,P5,-3.705,P3,-151.2,P33,-1.479,P31,65.73,P70,-4.452,P5,61.43,P46,65.73,P70
7580,C94,,6.3%,Max,138.1,P4,2.625,P2,-59.25,P46,-0.4693,P61,138.3,P8,2.251,P4,148.2,P33,138.3,P8
7580,C94,,6.3%,Min,-61.50,P5,-3.705,P3,-148.2,P33,-1.479,P31,42.23,P70,-3.747,P5,59.25,P46,42.23,P70
7580,C94,,12.5%,Max,138.1,P4,2.625,P2,-57.07,P46,-0.4693,P61,81.69,P8,2.017,P2,145.3,P33,81.70,P8
7580,C94,,12.5%,Min,-61.50,P5,-3.705,P3,-145.3,P33,-1.479,P31,17.30,P3,-3.097,P3,57.07,P46,17.58,P3
7580,C94,,18.8%,Max,138.1,P4,2.625,P2,-54.89,P46,-0.4693,P61,29.74,P2,1.805,P2,142.3,P33,29.79,P2
7580,C94,,18.8%,Min,-61.50,P5,-3.705,P3,-142.3,P33,-1.479,P31,-8.522,P3,-2.467,P3,54.89,P46,0.2987,P79
7580,C94,,25.0%,Max,138.1,P4,2.625,P2,-52.71,P46,-0.4693,P61,0.7274,P4,1.592,P2,139.4,P33,36.56,P6
7580,C94,,25.0%,Min,-61.50,P5,-3.705,P3,-139.4,P33,-1.479,P31,-36.56,P6,-1.838,P3,52.71,P46,1.563,P4
7580,C94,,25.0%,Max,132.7,P4,3.487,P55,-28.83,P46,0.2300,P2,-8.904,P4,3.535,P55,75.44,P33,55.74,P6
7580,C94,,25.0%,Min,-61.94,P5,-4.529,P5,-75.44,P33,-0.3582,P3,-55.73,P6,-4.522,P5,28.83,P46,9.268,P4
7580,C94,,31.3%,Max,132.7,P4,3.487,P55,-26.65,P46,0.2300,P2,-23.74,P2,2.568,P4,72.50,P33,83.28,P6
7580,C94,,31.3%,Min,-61.94,P5,-4.529,P5,-72.49,P33,-0.3582,P3,-83.28,P6,-3.955,P5,26.65,P46,23.85,P2
7580,C94,,37.5%,Max,132.7,P4,3.487,P55,-24.47,P46,0.2300,P2,-37.55,P2,2.564,P4,69.56,P33,109.7,P6
7580,C94,,37.5%,Min,-61.94,P5,-4.529,P5,-69.55,P33,-0.3582,P3,-109.7,P6,-3.389,P5,24.47,P46,37.63,P2
7580,C94,,43.8%,Max,132.7,P4,3.487,P55,-22.29,P46,0.2300,P2,-49.81,P91,2.561,P4,66.61,P33,135.0,P6
7580,C94,,43.8%,Min,-61.94,P5,-4.529,P5,-66.61,P33,-0.3582,P3,-135.0,P6,-2.822,P5,22.29,P46,49.81,P91
7580,C94,,50.0%,Max,132.7,P4,3.487,P55,-20.11,P46,0.2300,P2,-59.82,P91,2.558,P4,63.67,P33,159.1,P6
7580,C94,,50.0%,Min,-61.94,P5,-4.529,P5,-63.67,P33,-0.3582,P3,-159.1,P6,-2.255,P5,20.11,P46,59.83,P91
7580,C94,,50.0%,Max,126.1,P4,4.505,P55,61.32,P22,1.672,P25,-59.86,P91,4.061,P55,61.33,P22,159.2,P6
7580,C94,,50.0%,Min,-63.21,P58,-5.063,P5,18.51,P69,0.3729,P55,-159.2,P6,-4.584,P5,18.53,P69,59.86,P91
7580,C94,,56.3%,Max,126.1,P4,4.505,P55,64.26,P22,1.672,P25,-51.11,P90,2.721,P4,64.27,P22,135.3,P6
7580,C94,,56.3%,Min,-63.21,P58,-5.063,P5,20.69,P69,0.3729,P55,-135.3,P6,-4.073,P5,20.71,P69,51.12,P90
7580,C94,,62.5%,Max,126.1,P4,4.505,P55,67.20,P22,1.672,P25,-40.89,P66,2.913,P4,67.21,P22,111.0,P33
7580,C94,,62.5%,Min,-63.21,P58,-5.063,P5,22.87,P69,0.3729,P55,-111.0,P33,-3.563,P5,22.88,P69,40.89,P66
7580,C94,,68.8%,Max,126.1,P4,4.505,P55,70.15,P22,1.672,P25,-29.76,P66,3.104,P4,70.16,P22,85.76,P33
7580,C94,,68.8%,Min,-63.21,P58,-5.063,P5,25.05,P69,0.3729,P55,-85.76,P33,-3.052,P5,25.06,P69,29.77,P66
7580,C94,,75.0%,Max,126.1,P4,4.505,P55,73.09,P22,1.672,P25,-17.78,P66,3.296,P4,73.10,P22,59.34,P33
7580,C94,,75.0%,Min,-63.21,P58,-5.063,P5,27.22,P69,0.3729,P55,-59.34,P33,-2.889,P55,27.24,P69,17.84,P66
7580,C94,,75.0%,Max,118.9,P4,4.712,P55,135.7,P22,0.2276,P4,-10.19,P58,4.158,P55,135.7,P22,41.73,P33
7580,C94,,75.0%,Min,-61.02,P58,-5.641,P5,50.65,P69,-0.2588,P5,-41.73,P33,-4.700,P5,50.66,P69,10.31,P58
7580,C94,,81.3%,Max,118.9,P4,4.712,P55,138.7,P22,0.2276,P4,20.17,P10,2.794,P4,138.7,P22,20.18,P10
7580,C94,,81.3%,Min,-61.02,P58,-5.641,P5,52.83,P69,-0.2588,P5,-5.461,P57,-4.195,P5,52.84,P69,0.2590,P77
7580,C94,,87.5%,Max,118.9,P4,4.712,P55,141.6,P22,0.2276,P4,73.41,P22,3.215,P4,141.6,P22,73.42,P22
7580,C94,,87.5%,Min,-61.02,P58,-5.641,P5,55.01,P69,-0.2588,P5,15.93,P57,-3.691,P5,55.02,P69,15.93,P57
7580,C94,,93.8%,Max,118.9,P4,4.712,P55,144.5,P22,0.2276,P4,128.6,P22,3.637,P4,144.6,P22,128.6,P22
7580,C94,,93.8%,Min,-61.02,P58,-5.641,P5,57.19,P69,-0.2588,P5,38.17,P57,-3.187,P5,57.19,P69,38.18,P57
7580,C94,7715,100.0%,Max,118.9,P4,4.712,P55,147.5,P22,0.2276,P4,184.9,P22,4.058,P4,147.5,P22,184.9,P22
7580,C94,7715,100.0%,Min,-61.02,P58,-5.641,P5,59.37,P69,-0.2588,P5,61.06,P69,-3.111,P55,59.37,P69,61.06,P69
7581,C94,6209,0.0%,Max,155.2,P4,3.443,P2,-51.73,P85,-1.055,P48,157.4,P31,1.555,P2,129.6,P30,157.4,P31
7581,C94,6209,0.0%,Min,-120.8,P5,-4.024,P3,-129.6,P30,-3.554,P31,45.18,P5,-3.457,P3,51.73,P85,45.30,P5
7581,C94,,6.3%,Max,155.2,P4,3.443,P2,-49.67,P85,-1.055,P48,110.6,P31,1.803,P2,126.8,P30,110.7,P31
7581,C94,,6.3%,Min,-120.8,P5,-4.024,P3,-126.8,P30,-3.554,P31,24.37,P5,-3.493,P3,49.67,P85,24.59,P5
7581,C94,,12.5%,Max,155.2,P4,3.443,P2,-47.61,P85,-1.055,P48,64.92,P31,2.050,P2,124.1,P30,64.92,P31
7581,C94,,12.5%,Min,-120.8,P5,-4.024,P3,-124.1,P30,-3.554,P31,4.309,P5,-3.528,P3,47.61,P85,5.453,P5
7581,C94,,18.8%,Max,155.2,P4,3.443,P2,-45.55,P85,-1.055,P48,25.32,P2,2.298,P2,121.3,P30,25.42,P2
7581,C94,,18.8%,Min,-120.8,P5,-4.024,P3,-121.3,P30,-3.554,P31,-15.21,P3,-3.564,P3,45.55,P85,0.5209,P86
7581,C94,,25.0%,Max,155.2,P4,3.443,P2,-43.49,P85,-1.055,P48,1.565,P2,2.546,P2,118.5,P30,34.23,P3
7581,C94,,25.0%,Min,-120.8,P5,-4.024,P3,-118.5,P30,-3.554,P31,-34.07,P8,-3.600,P3,43.49,P85,1.076,P79
7581,C94,,25.0%,Max,148.4,P4,1.872,P4,-20.65,P4,-1.007,P55,-5.459,P55,0.9647,P46,58.69,P30,48.39,P8
7581,C94,,25.0%,Min,-112.6,P5,-3.038,P5,-58.68,P30,-3.423,P8,-48.37,P8,-2.656,P5,20.73,P4,5.467,P55
7581,C94,,31.3%,Max,148.4,P4,1.872,P4,-18.59,P4,-1.007,P55,-16.12,P55,1.211,P4,55.91,P30,67.67,P8
7581,C94,,31.3%,Min,-112.6,P5,-3.038,P5,-55.90,P30,-3.423,P8,-67.66,P8,-2.514,P5,18.68,P4,16.12,P55
7581,C94,,37.5%,Max,148.4,P4,1.872,P4,-16.53,P4,-1.007,P55,-26.03,P55,1.494,P4,53.13,P30,86.20,P25
7581,C94,,37.5%,Min,-112.6,P5,-3.038,P5,-53.12,P30,-3.423,P8,-86.19,P25,-2.371,P5,16.63,P85,26.04,P55
7581,C94,,43.8%,Max,148.4,P4,1.872,P4,-14.47,P4,-1.007,P55,-35.19,P55,1.777,P4,50.35,P30,104.2,P24
7581,C94,,43.8%,Min,-112.6,P5,-3.038,P5,-50.34,P30,-3.423,P8,-104.2,P24,-2.229,P5,14.57,P85,35.21,P55
7581,C94,,50.0%,Max,148.4,P4,1.872,P4,-12.41,P4,-1.007,P55,-43.60,P55,2.059,P4,47.57,P30,121.2,P24
7581,C94,,50.0%,Min,-112.6,P5,-3.038,P5,-47.56,P30,-3.423,P8,-121.2,P24,-2.087,P5,12.51,P85,43.63,P55
7581,C94,,50.0%,Max,143.7,P4,2.098,P4,62.24,P8,3.905,P24,-43.99,P55,1.160,P4,62.24,P8,120.3,P24
7581,C94,,50.0%,Min,-100.1,P5,-2.759,P5,18.73,P78,1.075,P67,-120.3,P24,-2.346,P5,18.75,P78,43.99,P55
7581,C94,,56.2%,Max,143.7,P4,2.098,P4,65.03,P8,3.905,P24,-35.29,P69,1.359,P4,65.03,P8,98.03,P24
7581,C94,,56.2%,Min,-100.1,P5,-2.759,P5,20.79,P78,1.075,P67,-98.03,P24,-2.304,P5,20.81,P78,35.29,P69
7581,C94,,62.5%,Max,143.7,P4,2.098,P4,67.81,P8,3.905,P24,-24.90,P69,1.558,P4,67.81,P8,74.72,P24
7581,C94,,62.5%,Min,-100.1,P5,-2.759,P5,22.85,P78,1.075,P67,-74.71,P24,-2.262,P5,22.87,P78,24.90,P69
7581,C94,,68.7%,Max,143.7,P4,2.098,P4,70.59,P8,3.905,P24,-12.68,P2,1.757,P4,70.59,P8,50.39,P24
7581,C94,,68.7%,Min,-100.1,P5,-2.759,P5,24.91,P78,1.075,P67,-50.38,P24,-2.220,P5,24.93,P78,12.78,P2
7581,C94,,75.0%,Max,143.7,P4,2.098,P4,73.37,P8,3.905,P24,0.6024,P2,1.956,P4,73.37,P8,25.18,P12
7581,C94,,75.0%,Min,-100.1,P5,-2.759,P5,26.97,P78,1.075,P67,-25.13,P12,-2.178,P5,26.99,P78,1.911,P69
7581,C94,,75.0%,Max,141.3,P4,2.934,P2,132.9,P8,2.469,P6,9.633,P2,1.352,P50,132.9,P8,14.90,P3
7581,C94,,75.0%,Min,-77.01,P5,-3.149,P3,48.93,P78,0.6894,P3,-14.72,P3,-2.271,P3,48.93,P78,0.1380,P44
7581,C94,,81.2%,Max,141.3,P4,2.934,P2,135.7,P8,2.469,P6,46.36,P8,1.619,P2,135.7,P8,46.37,P8
7581,C94,,81.2%,Min,-77.01,P5,-3.149,P3,50.99,P78,0.6894,P3,6.331,P3,-2.521,P3,50.99,P78,6.814,P3
7581,C94,,87.5%,Max,141.3,P4,2.934,P2,138.5,P8,2.469,P6,96.36,P8,1.947,P2,138.5,P8,96.36,P8
7581,C94,,87.5%,Min,-77.01,P5,-3.149,P3,53.05,P78,0.6894,P3,27.57,P46,-2.770,P3,53.05,P78,27.57,P46
7581,C94,,93.7%,Max,141.3,P4,2.934,P2,141.3,P8,2.469,P6,147.4,P8,2.274,P2,141.3,P8,147.4,P8
7581,C94,,93.7%,Min,-77.01,P5,-3.149,P3,55.11,P78,0.6894,P3,47.35,P46,-3.020,P3,55.11,P78,47.36,P46
7581,C94,7716,100.0%,Max,141.3,P4,2.934,P2,144.0,P8,2.469,P6,199.4,P8,2.602,P2,144.0,P8,199.4,P8
7581,C94,7716,100.0%,Min,-77.01,P5,-3.149,P3,57.17,P78,0.6894,P3,67.89,P46,-3.269,P3,57.17,P78,67.91,P46
7582,C94,6200,0.0%,Max,185.0,P2,9.977,P2,-73.44,P55,-0.4365,P2,383.5,P8,8.779,P2,183.7,P8,383.5,P8
7582,C94,6200,0.0%,Min,-194.1,P3,-3.164,P67,-183.6,P8,-2.076,P6,145.7,P79,-3.200,P3,73.45,P55,145.7,P79
7582,C94,,6.2%,Max,185.0,P2,9.977,P2,-71.27,P55,-0.4365,P2,313.4,P8,6.859,P2,180.7,P8,313.4,P8
7582,C94,,6.2%,Min,-194.1,P3,-3.164,P67,-180.7,P8,-2.076,P6,117.7,P79,-4.091,P3,71.28,P55,117.7,P79
7582,C94,,12.5%,Max,185.0,P2,9.977,P2,-69.09,P55,-0.4365,P2,244.4,P8,4.938,P2,177.8,P8,244.4,P8
7582,C94,,12.5%,Min,-194.1,P3,-3.164,P67,-177.7,P8,-2.076,P6,90.58,P79,-4.982,P3,69.10,P55,90.58,P79
7582,C94,,18.7%,Max,185.0,P2,9.977,P2,-66.92,P55,-0.4365,P2,176.6,P8,3.018,P2,174.9,P8,176.6,P8
7582,C94,,18.7%,Min,-194.1,P3,-3.164,P67,-174.8,P8,-2.076,P6,64.28,P79,-5.873,P3,66.93,P55,64.28,P79
7582,C94,,25.0%,Max,185.0,P2,9.977,P2,-64.74,P55,-0.4365,P2,109.9,P8,2.076,P67,171.9,P8,110.0,P8
7582,C94,,25.0%,Min,-194.1,P3,-3.164,P67,-171.9,P8,-2.076,P6,34.98,P3,-7.156,P13,64.76,P55,35.63,P3
7582,C94,,25.0%,Max,165.4,P2,8.485,P2,-41.30,P79,-1.005,P2,86.78,P8,6.808,P2,109.4,P8,86.81,P8
7582,C94,,25.0%,Min,-200.0,P3,-2.903,P3,-109.4,P8,-3.467,P24,23.90,P3,-3.054,P3,41.33,P79,24.10,P3
7582,C94,,31.2%,Max,165.4,P2,8.485,P2,-39.13,P79,-1.005,P2,45.27,P8,5.498,P2,106.5,P8,45.28,P8
7582,C94,,31.2%,Min,-200.0,P3,-2.903,P3,-106.4,P8,-3.467,P24,4.162,P3,-3.893,P3,39.16,P79,5.699,P3
7582,C94,,37.5%,Max,165.4,P2,8.485,P2,-36.95,P79,-1.005,P2,17.96,P2,4.189,P2,103.5,P8,18.44,P2
7582,C94,,37.5%,Min,-200.0,P3,-2.903,P3,-103.5,P8,-3.467,P24,-14.74,P3,-4.731,P3,36.99,P79,0.2147,P80
7582,C94,,43.7%,Max,165.4,P2,8.485,P2,-34.78,P79,-1.005,P2,-2.448,P2,2.879,P2,100.6,P8,35.71,P6
7582,C94,,43.7%,Min,-200.0,P3,-2.903,P3,-100.6,P8,-3.467,P24,-35.63,P6,-5.569,P3,34.82,P79,3.779,P2
7582,C94,,50.0%,Max,165.4,P2,8.485,P2,-32.61,P79,-1.005,P2,-22.02,P2,2.071,P67,97.68,P8,73.09,P29
7582,C94,,50.0%,Min,-200.0,P3,-2.903,P3,-97.62,P8,-3.467,P24,-72.89,P29,-6.413,P13,32.65,P79,22.07,P2
7582,C94,,50.0%,Max,159.1,P2,8.580,P2,26.24,P31,2.725,P8,-24.92,P2,6.357,P2,26.28,P31,78.03,P29
7582,C94,,50.0%,Min,-186.4,P3,-3.401,P3,-0.4066,P3,0.6809,P55,-77.93,P29,-3.299,P3,3.009,P5,25.72,P2
7582,C94,,56.3%,Max,159.1,P2,8.580,P2,29.17,P31,2.725,P8,-20.52,P2,5.285,P2,29.21,P31,68.68,P8
7582,C94,,56.3%,Min,-186.4,P3,-3.401,P3,1.767,P3,0.6809,P55,-68.68,P8,-4.220,P3,3.636,P5,21.19,P2
7582,C94,,62.5%,Max,159.1,P2,8.580,P2,32.10,P31,2.725,P8,-15.28,P2,4.214,P2,32.14,P31,58.60,P8
7582,C94,,62.5%,Min,-186.4,P3,-3.401,P3,3.941,P3,0.6809,P55,-58.60,P8,-5.141,P3,5.180,P5,15.47,P54
7582,C94,,68.8%,Max,159.1,P2,8.580,P2,35.04,P31,2.725,P8,-8.399,P54,3.142,P2,35.07,P31,47.43,P8
7582,C94,,68.8%,Min,-186.4,P3,-3.401,P3,6.114,P3,0.6809,P55,-47.39,P8,-6.062,P3,6.996,P3,8.422,P54
7582,C94,,75.0%,Max,159.1,P2,8.580,P2,37.97,P31,2.725,P8,-0.4655,P55,2.442,P67,38.01,P31,35.20,P8
7582,C94,,75.0%,Min,-186.4,P3,-3.401,P3,8.288,P3,0.6809,P55,-35.04,P8,-6.984,P3,8.958,P3,0.9749,P54
7582,C94,,75.0%,Max,158.9,P2,10.25,P2,103.0,P31,2.480,P31,5.523,P55,6.516,P2,103.0,P31,25.31,P3
7582,C94,,75.0%,Min,-154.3,P3,-4.350,P3,36.17,P85,0.6993,P72,-25.03,P3,-3.796,P3,36.35,P85,1.153,P56
7582,C94,,81.3%,Max,158.9,P2,10.25,P2,106.0,P31,2.480,P31,30.41,P19,5.637,P2,106.0,P31,30.41,P19
7582,C94,,81.3%,Min,-154.3,P3,-4.350,P3,38.34,P85,0.6993,P72,-8.949,P3,-5.186,P3,38.51,P85,0.7980,P65
7582,C94,,87.5%,Max,158.9,P2,10.25,P2,108.9,P31,2.480,P31,69.45,P31,4.757,P2,108.9,P31,69.45,P31
7582,C94,,87.5%,Min,-154.3,P3,-4.350,P3,40.51,P85,0.6993,P72,7.883,P5,-6.577,P3,40.68,P85,10.12,P5
7582,C94,,93.8%,Max,158.9,P2,10.25,P2,111.8,P31,2.480,P31,111.9,P31,3.878,P2,111.8,P31,111.9,P31
7582,C94,,93.8%,Min,-154.3,P3,-4.350,P3,42.69,P85,0.6993,P72,25.39,P5,-7.967,P3,42.84,P85,26.54,P5
7582,C94,6209,100.0%,Max,158.9,P2,10.25,P2,114.8,P31,2.480,P31,155.5,P31,3.399,P67,114.8,P31,155.5,P31
7582,C94,6209,100.0%,Min,-154.3,P3,-4.350,P3,44.86,P85,0.6993,P72,43.74,P5,-9.358,P3,45.01,P85,44.67,P5
7583,C94,5030,0.0%,Max,407.5,P2,2.954,P2,-40.12,P55,12.34,P25,237.0,P8,1.947,P2,100.7,P8,237.0,P8
7583,C94,5030,0.0%,Min,-316.9,P3,-2.092,P3,-100.7,P8,4.013,P67,79.41,P79,-2.326,P3,40.12,P55,79.42,P79
7583,C94,,6.2%,Max,407.5,P2,2.954,P2,-38.50,P55,12.34,P25,199.1,P8,1.693,P2,98.51,P8,199.1,P8
7583,C94,,6.2%,Min,-316.9,P3,-2.092,P3,-98.51,P8,4.013,P67,64.40,P79,-2.400,P3,38.51,P55,64.40,P79
7583,C94,,12.5%,Max,407.5,P2,2.954,P2,-36.89,P55,12.34,P25,161.9,P8,1.439,P2,96.33,P8,161.9,P8
7583,C94,,12.5%,Min,-316.9,P3,-2.092,P3,-96.33,P8,4.013,P67,50.01,P79,-2.475,P3,36.89,P55,50.01,P79
7583,C94,,18.7%,Max,407.5,P2,2.954,P2,-35.27,P55,12.34,P25,125.6,P8,1.185,P2,94.15,P8,125.6,P8
7583,C94,,18.7%,Min,-316.9,P3,-2.092,P3,-94.15,P8,4.013,P67,36.23,P79,-2.550,P3,35.27,P55,36.23,P79
7583,C94,,25.0%,Max,407.5,P2,2.954,P2,-33.66,P55,12.34,P25,90.12,P8,0.9308,P2,91.97,P8,90.13,P8
7583,C94,,25.0%,Min,-316.9,P3,-2.092,P3,-91.97,P8,4.013,P67,23.06,P79,-2.625,P3,33.66,P55,23.07,P79
7583,C94,,25.0%,Max,365.9,P2,0.2557,P4,-23.91,P79,8.757,P25,77.10,P8,0.4311,P54,65.91,P8,77.10,P8
7583,C94,,25.0%,Min,-206.8,P50,-0.2989,P5,-65.91,P8,2.952,P55,18.40,P79,-1.054,P5,23.91,P79,18.40,P79
7583,C94,,31.2%,Max,365.9,P2,0.2557,P4,-22.30,P79,8.757,P25,52.39,P8,0.3756,P54,63.73,P8,52.39,P8
7583,C94,,31.2%,Min,-206.8,P50,-0.2989,P5,-63.73,P8,2.952,P55,9.592,P79,-1.052,P5,22.30,P79,9.595,P79
7583,C94,,37.5%,Max,365.9,P2,0.2557,P4,-20.68,P79,8.757,P25,28.50,P8,0.3635,P4,61.55,P8,28.51,P8
7583,C94,,37.5%,Min,-206.8,P50,-0.2989,P5,-61.55,P8,2.952,P55,1.399,P79,-1.050,P5,20.68,P79,1.413,P79
7583,C94,,43.7%,Max,365.9,P2,0.2557,P4,-19.07,P79,8.757,P25,9.495,P2,0.3781,P4,59.37,P8,9.499,P2
7583,C94,,43.7%,Min,-206.8,P50,-0.2989,P5,-59.37,P8,2.952,P55,-7.445,P3,-1.049,P5,19.07,P79,0.07182,P35
7583,C94,,50.0%,Max,365.9,P2,0.2557,P4,-17.45,P79,8.757,P25,-2.651,P2,0.3926,P4,57.19,P8,21.12,P6
7583,C94,,50.0%,Min,-206.8,P50,-0.2989,P5,-57.19,P8,2.952,P55,-21.11,P6,-1.047,P5,17.45,P79,2.670,P2
7583,C94,,50.0%,Max,346.7,P4,0.2267,P4,5.062,P2,-2.883,P49,-5.297,P2,0.3943,P55,5.065,P2,24.97,P6
7583,C94,,50.0%,Min,-163.4,P50,-0.4366,P5,-5.029,P3,-7.921,P31,-24.95,P6,-1.348,P5,0.06172,P66,5.301,P2
7583,C94,,56.2%,Max,346.7,P4,0.2267,P4,6.677,P2,-2.883,P49,-5.415,P2,0.3742,P55,6.679,P2,23.17,P6
7583,C94,,56.2%,Min,-163.4,P50,-0.4366,P5,-3.413,P3,-7.921,P31,-23.16,P6,-1.247,P5,0.09003,P69,5.417,P2
7583,C94,,62.5%,Max,346.7,P4,0.2267,P4,8.518,P7,-2.883,P49,-4.917,P2,0.3541,P55,8.519,P7,20.54,P6
7583,C94,,62.5%,Min,-163.4,P50,-0.4366,P5,-1.798,P3,-7.921,P31,-20.53,P6,-1.146,P5,0.06609,P82,4.919,P2
7583,C94,,68.7%,Max,346.7,P4,0.2267,P4,10.70,P7,-2.883,P49,-3.803,P2,0.3340,P55,10.70,P7,17.82,P24
7583,C94,,68.7%,Min,-163.4,P50,-0.4366,P5,-0.1831,P3,-7.921,P31,-17.80,P24,-1.045,P5,0.4107,P3,3.804,P2
7583,C94,,75.0%,Max,346.7,P4,0.2267,P4,12.88,P7,-2.883,P49,-2.073,P2,0.3138,P55,12.88,P7,14.30,P24
7583,C94,,75.0%,Min,-163.4,P50,-0.4366,P5,1.432,P3,-7.921,P31,-14.29,P24,-0.9444,P5,1.478,P3,2.075,P2
7583,C94,,75.0%,Max,343.2,P4,1.711,P4,40.72,P6,-4.453,P67,0.9005,P2,0.6678,P2,40.73,P6,9.685,P8
7583,C94,,75.0%,Min,-130.4,P54,-0.8617,P5,13.17,P85,-12.14,P25,-9.666,P8,-1.386,P3,13.20,P85,0.4202,P55
7583,C94,,81.3%,Max,343.2,P4,1.711,P4,42.90,P6,-4.453,P67,10.37,P2,0.5910,P4,42.91,P6,10.38,P2
7583,C94,,81.3%,Min,-130.4,P54,-0.8617,P5,14.79,P85,-12.14,P25,-3.243,P3,-1.633,P5,14.81,P85,0.2750,P86
7583,C94,,87.5%,Max,343.2,P4,1.711,P4,45.08,P6,-4.453,P67,25.03,P6,0.5172,P4,45.09,P6,25.06,P6
7583,C94,,87.5%,Min,-130.4,P54,-0.8617,P5,16.41,P85,-12.14,P25,3.604,P3,-1.884,P5,16.42,P85,4.054,P3
7583,C94,,93.8%,Max,343.2,P4,1.711,P4,47.27,P6,-4.453,P67,42.64,P6,0.7390,P55,47.27,P6,42.66,P6
7583,C94,,93.8%,Min,-130.4,P54,-0.8617,P5,18.02,P85,-12.14,P25,11.07,P3,-2.134,P5,18.04,P85,11.26,P3
7583,C94,5033,100.0%,Max,343.2,P4,1.711,P4,49.45,P6,-4.453,P67,61.07,P6,0.9814,P55,49.45,P6,61.09,P6
7583,C94,5033,100.0%,Min,-130.4,P54,-0.8617,P5,19.64,P85,-12.14,P25,19.10,P84,-2.453,P13,19.65,P85,19.16,P84
7584,C94,5033,0.0%,Max,344.0,P4,0.9988,P46,-29.66,P79,12.08,P24,79.01,P22,0.7669,P50,66.90,P22,79.01,P22
7584,C94,5033,0.0%,Min,-142.5,P55,-1.350,P3,-66.90,P22,4.230,P67,31.35,P3,-1.448,P5,29.66,P79,31.38,P3
7584,C94,,6.2%,Max,344.0,P4,0.9988,P46,-28.24,P79,12.08,P24,56.92,P22,0.4799,P54,64.98,P22,56.92,P22
7584,C94,,6.2%,Min,-142.5,P55,-1.350,P3,-64.98,P22,4.230,P67,20.76,P3,-1.427,P5,28.24,P79,20.81,P3
7584,C94,,12.5%,Max,344.0,P4,0.9988,P46,-26.82,P79,12.08,P24,35.47,P22,0.4234,P55,63.07,P22,35.47,P22
7584,C94,,12.5%,Min,-142.5,P55,-1.350,P3,-63.07,P22,4.230,P67,10.66,P3,-1.407,P5,26.82,P79,10.75,P3
7584,C94,,18.7%,Max,344.0,P4,0.9988,P46,-25.40,P79,12.08,P24,14.66,P22,0.4535,P2,61.15,P22,14.68,P22
7584,C94,,18.7%,Min,-142.5,P55,-1.350,P3,-61.15,P22,4.230,P67,1.026,P3,-1.400,P3,25.40,P79,1.736,P3
7584,C94,,25.0%,Max,344.0,P4,0.9988,P46,-23.98,P79,12.08,P24,2.160,P2,0.6596,P2,59.24,P22,8.249,P3
7584,C94,,25.0%,Min,-142.5,P55,-1.350,P3,-59.23,P22,4.230,P67,-8.129,P3,-1.398,P3,23.98,P79,0.6977,P58
7584,C94,,25.0%,Max,346.1,P4,0.1463,P4,-14.93,P79,7.459,P22,-1.335,P2,0.4239,P55,34.46,P22,12.84,P31
7584,C94,,25.0%,Min,-156.5,P55,-0.5353,P5,-34.46,P22,2.729,P91,-12.84,P31,-1.282,P13,14.93,P79,1.345,P2
7584,C94,,31.2%,Max,346.1,P4,0.1463,P4,-13.51,P79,7.459,P22,-7.809,P2,0.4403,P55,32.54,P22,23.82,P31
7584,C94,,31.2%,Min,-156.5,P55,-0.5353,P5,-32.54,P22,2.729,P91,-23.82,P31,-1.164,P5,13.51,P79,7.811,P2
7584,C94,,37.5%,Max,346.1,P4,0.1463,P4,-12.09,P79,7.459,P22,-13.09,P48,0.4567,P55,30.63,P22,34.16,P31
7584,C94,,37.5%,Min,-156.5,P55,-0.5353,P5,-30.63,P22,2.729,P91,-34.16,P31,-1.057,P5,12.09,P79,13.11,P48
7584,C94,,43.7%,Max,346.1,P4,0.1463,P4,-10.67,P79,7.459,P22,-17.16,P48,0.4731,P55,28.71,P22,43.86,P31
7584,C94,,43.7%,Min,-156.5,P55,-0.5353,P5,-28.71,P22,2.729,P91,-43.86,P31,-0.9499,P5,10.67,P79,17.17,P48
7584,C94,,50.0%,Max,346.1,P4,0.1463,P4,-9.253,P79,7.459,P22,-20.76,P48,0.4895,P55,26.80,P22,52.92,P31
7584,C94,,50.0%,Min,-156.5,P55,-0.5353,P5,-26.79,P22,2.729,P91,-52.92,P31,-0.8430,P5,9.255,P79,20.76,P48
7584,C94,,50.0%,Max,347.1,P4,0.2574,P67,26.35,P6,-2.986,P55,-21.05,P72,0.6617,P55,26.36,P6,53.75,P8
7584,C94,,50.0%,Min,-171.2,P55,-0.9293,P3,8.033,P58,-8.257,P25,-53.74,P8,-1.521,P3,8.033,P58,21.06,P72
7584,C94,,56.2%,Max,347.1,P4,0.2574,P67,28.27,P6,-2.986,P55,-17.37,P73,0.5954,P55,28.27,P6,44.91,P8
7584,C94,,56.2%,Min,-171.2,P55,-0.9293,P3,9.452,P58,-8.257,P25,-44.90,P8,-1.262,P5,9.452,P58,17.38,P73
7584,C94,,62.5%,Max,347.1,P4,0.2574,P67,30.18,P6,-2.986,P55,-13.19,P77,0.5291,P55,30.19,P6,35.42,P8
7584,C94,,62.5%,Min,-171.2,P55,-0.9293,P3,10.87,P58,-8.257,P25,-35.41,P8,-1.010,P5,10.87,P58,13.20,P77
7584,C94,,68.7%,Max,347.1,P4,0.2574,P67,32.10,P6,-2.986,P55,-8.458,P2,0.4629,P55,32.11,P6,25.28,P8
7584,C94,,68.7%,Min,-171.2,P55,-0.9293,P3,12.29,P58,-8.257,P25,-25.28,P8,-0.7589,P5,12.29,P58,8.463,P2
7584,C94,,75.0%,Max,347.1,P4,0.2574,P67,34.02,P6,-2.986,P55,-2.087,P2,0.3966,P55,34.02,P6,14.51,P8
7584,C94,,75.0%,Min,-171.2,P55,-0.9293,P3,13.71,P58,-8.257,P25,-14.51,P8,-0.5076,P5,13.71,P58,2.103,P2
7584,C94,,75.0%,Max,350.0,P4,0.9138,P2,58.87,P6,-4.227,P55,1.335,P2,0.5010,P2,58.89,P6,8.898,P3
7584,C94,,75.0%,Min,-186.6,P55,-2.190,P3,22.88,P58,-12.17,P25,-8.714,P8,-1.941,P3,22.88,P58,1.104,P77
7584,C94,,81.3%,Max,350.0,P4,0.9138,P2,60.79,P6,-4.227,P55,13.66,P6,0.7601,P2,60.80,P6,13.68,P6
7584,C94,,81.3%,Min,-186.6,P55,-2.190,P3,24.29,P58,-12.17,P25,0.5550,P3,-1.772,P3,24.30,P58,1.856,P58
7584,C94,,87.5%,Max,350.0,P4,0.9138,P2,62.71,P6,-4.227,P55,34.35,P6,1.021,P4,62.72,P6,34.35,P6
7584,C94,,87.5%,Min,-186.6,P55,-2.190,P3,25.71,P58,-12.17,P25,10.21,P58,-1.605,P5,25.72,P58,10.22,P58
7584,C94,,93.8%,Max,350.0,P4,0.9138,P2,64.62,P6,-4.227,P55,55.68,P6,1.306,P4,64.63,P6,55.68,P6
7584,C94,,93.8%,Min,-186.6,P55,-2.190,P3,27.13,P58,-12.17,P25,19.07,P58,-1.463,P5,27.13,P58,19.07,P58
7584,C94,5036,100.0%,Max,350.0,P4,0.9138,P2,66.54,P6,-4.227,P55,77.65,P6,1.591,P4,66.55,P6,77.65,P6
7584,C94,5036,100.0%,Min,-186.6,P55,-2.190,P3,28.55,P58,-12.17,P25,28.39,P58,-1.321,P5,28.55,P58,28.40,P58
7585,C94,5036,0.0%,Max,345.9,P4,1.179,P55,-29.66,P77,9.976,P25,78.52,P30,1.750,P55,67.75,P22,78.52,P30
7585,C94,5036,0.0%,Min,-194.4,P55,-1.174,P3,-67.75,P22,3.493,P67,26.77,P73,-2.115,P5,29.66,P77,26.78,P73
7585,C94,,6.2%,Max,345.9,P4,1.179,P55,-28.03,P77,9.976,P25,52.91,P31,1.297,P55,65.55,P22,52.91,P31
7585,C94,,6.2%,Min,-194.4,P55,-1.174,P3,-65.55,P22,3.493,P67,15.68,P73,-1.736,P5,28.03,P77,15.69,P73
7585,C94,,12.5%,Max,345.9,P4,1.179,P55,-26.41,P77,9.976,P25,28.15,P31,0.8438,P55,63.35,P22,28.15,P31
7585,C94,,12.5%,Min,-194.4,P55,-1.174,P3,-63.35,P22,3.493,P67,3.664,P3,-1.357,P5,26.41,P77,3.901,P3
7585,C94,,18.7%,Max,345.9,P4,1.179,P55,-24.78,P77,9.976,P25,7.602,P2,0.5123,P2,61.16,P22,7.791,P3
7585,C94,,18.7%,Min,-194.4,P55,-1.174,P3,-61.16,P22,3.493,P67,-7.727,P3,-0.9957,P3,24.78,P77,0.2768,P47
7585,C94,,25.0%,Max,345.9,P4,1.179,P55,-23.15,P77,9.976,P25,-4.950,P2,0.4539,P2,58.96,P22,22.21,P6
7585,C94,,25.0%,Min,-194.4,P55,-1.174,P3,-58.96,P22,3.493,P67,-22.21,P6,-0.6514,P3,23.15,P77,4.970,P2
7585,C94,,25.0%,Max,321.1,P4,0.8589,P55,-13.38,P73,6.898,P33,-8.655,P2,1.442,P55,33.48,P31,28.74,P6
7585,C94,,25.0%,Min,-180.9,P55,-0.9430,P61,-33.48,P31,2.592,P64,-28.74,P6,-1.770,P5,13.38,P73,8.672,P2
7585,C94,,31.2%,Max,321.1,P4,0.8589,P55,-11.75,P73,6.898,P33,-15.15,P67,1.111,P55,31.29,P31,40.60,P6
7585,C94,,31.2%,Min,-180.9,P55,-0.9430,P61,-31.29,P31,2.592,P64,-40.60,P6,-1.449,P5,11.75,P73,15.16,P67
7585,C94,,37.5%,Max,321.1,P4,0.8589,P55,-10.12,P73,6.898,P33,-20.77,P67,0.7813,P55,29.09,P31,51.62,P6
7585,C94,,37.5%,Min,-180.9,P55,-0.9430,P61,-29.09,P31,2.592,P64,-51.62,P6,-1.128,P5,10.12,P73,20.77,P67
7585,C94,,43.7%,Max,321.1,P4,0.8589,P55,-8.491,P73,6.898,P33,-25.76,P67,0.4511,P55,26.89,P31,61.80,P25
7585,C94,,43.7%,Min,-180.9,P55,-0.9430,P61,-26.89,P31,2.592,P64,-61.80,P25,-0.8070,P5,8.493,P73,25.76,P67
7585,C94,,50.0%,Max,321.1,P4,0.8589,P55,-6.863,P73,6.898,P33,-30.12,P67,0.2101,P4,24.69,P31,71.15,P25
7585,C94,,50.0%,Min,-180.9,P55,-0.9430,P61,-24.69,P31,2.592,P64,-71.15,P25,-0.4859,P5,6.865,P73,30.12,P67
7585,C94,,50.0%,Max,282.3,P4,1.055,P55,30.36,P6,-2.381,P67,-30.69,P67,1.412,P55,30.36,P6,71.85,P25
7585,C94,,50.0%,Min,-155.0,P55,-1.199,P61,9.373,P67,-6.788,P24,-71.84,P25,-1.717,P61,9.386,P67,30.70,P67
7585,C94,,56.3%,Max,282.3,P4,1.055,P55,32.56,P6,-2.381,P67,-26.33,P2,1.006,P55,32.56,P6,60.03,P22
7585,C94,,56.3%,Min,-155.0,P55,-1.199,P61,11.00,P67,-6.788,P24,-60.03,P22,-1.358,P5,11.01,P67,26.34,P2
7585,C94,,62.5%,Max,282.3,P4,1.055,P55,34.75,P6,-2.381,P67,-20.16,P2,0.6009,P55,34.75,P6,47.61,P22
7585,C94,,62.5%,Min,-155.0,P55,-1.199,P61,12.63,P67,-6.788,P24,-47.61,P22,-1.015,P5,12.64,P67,20.16,P2
7585,C94,,68.8%,Max,282.3,P4,1.055,P55,36.95,P6,-2.381,P67,-13.36,P2,0.3534,P4,36.95,P6,34.44,P30
7585,C94,,68.8%,Min,-155.0,P55,-1.199,P61,14.26,P67,-6.788,P24,-34.44,P30,-0.6726,P5,14.27,P67,13.36,P2
7585,C94,,75.0%,Max,282.3,P4,1.055,P55,39.15,P6,-2.381,P67,-5.927,P2,0.2728,P4,39.15,P6,20.45,P30
7585,C94,,75.0%,Min,-155.0,P55,-1.199,P61,15.89,P67,-6.788,P24,-20.45,P30,-0.3299,P5,15.89,P67,5.931,P2
7585,C94,,75.0%,Max,241.2,P9,1.586,P55,66.72,P6,-3.446,P67,-0.4713,P2,1.591,P55,66.72,P6,11.43,P19
7585,C94,,75.0%,Min,-121.7,P55,-2.904,P5,26.01,P67,-10.29,P24,-11.42,P18,-2.547,P5,26.03,P67,0.9711,P2
7585,C94,,81.3%,Max,241.2,P9,1.586,P55,68.91,P6,-3.446,P67,17.20,P6,1.180,P4,68.92,P6,17.21,P6
7585,C94,,81.3%,Min,-121.7,P55,-2.904,P5,27.64,P67,-10.29,P24,1.950,P3,-2.174,P5,27.65,P67,2.624,P66
7585,C94,,87.5%,Max,241.2,P9,1.586,P55,71.11,P6,-3.446,P67,44.12,P6,1.446,P4,71.12,P6,44.12,P6
7585,C94,,87.5%,Min,-121.7,P55,-2.904,P5,29.26,P67,-10.29,P24,13.54,P67,-1.802,P5,29.28,P67,13.54,P67
7585,C94,,93.8%,Max,241.2,P9,1.586,P55,73.31,P6,-3.446,P67,71.87,P6,1.711,P4,73.32,P6,71.87,P6
7585,C94,,93.8%,Min,-121.7,P55,-2.904,P5,30.89,P67,-10.29,P24,25.10,P67,-1.429,P5,30.91,P67,25.10,P67
7585,C94,5039,100.0%,Max,241.2,P9,1.586,P55,75.51,P6,-3.446,P67,100.5,P6,1.976,P4,75.52,P6,100.5,P6
7585,C94,5039,100.0%,Min,-121.7,P55,-2.904,P5,32.52,P67,-10.29,P24,37.29,P67,-1.056,P5,32.54,P67,37.29,P67
7586,C94,5039,0.0%,Max,216.5,P9,1.025,P54,-28.62,P77,9.837,P24,81.72,P30,1.158,P54,67.36,P22,81.72,P30
7586,C94,5039,0.0%,Min,-88.41,P55,-1.094,P9,-67.36,P22,3.548,P55,28.79,P49,-1.577,P9,28.62,P77,28.79,P49
7586,C94,,6.2%,Max,216.5,P9,1.025,P54,-26.99,P77,9.837,P24,56.25,P30,0.7650,P55,65.16,P22,56.25,P30
7586,C94,,6.2%,Min,-88.41,P55,-1.094,P9,-65.16,P22,3.548,P55,18.07,P49,-1.157,P9,27.00,P77,18.07,P49
7586,C94,,12.5%,Max,216.5,P9,1.025,P54,-25.37,P77,9.837,P24,31.63,P30,0.3750,P55,62.96,P22,31.64,P30
7586,C94,,12.5%,Min,-88.41,P55,-1.094,P9,-62.96,P22,3.548,P55,6.809,P3,-0.8846,P3,25.37,P77,6.866,P3
7586,C94,,18.7%,Max,216.5,P9,1.025,P54,-23.74,P77,9.837,P24,8.265,P18,0.3779,P2,60.77,P22,8.267,P18
7586,C94,,18.7%,Min,-88.41,P55,-1.094,P9,-60.77,P22,3.548,P55,-4.242,P3,-0.7451,P3,23.74,P77,0.3709,P61
7586,C94,,25.0%,Max,216.5,P9,1.025,P54,-22.11,P77,9.837,P24,-3.987,P2,0.4453,P2,58.57,P22,17.74,P25
7586,C94,,25.0%,Min,-88.41,P55,-1.094,P9,-58.57,P22,3.548,P55,-17.74,P25,-0.6057,P3,22.11,P77,4.012,P2
7586,C94,,25.0%,Max,193.5,P4,0.7395,P55,-12.36,P73,6.666,P22,-7.532,P2,0.8554,P55,32.83,P30,24.23,P24
7586,C94,,25.0%,Min,-65.25,P54,-0.8068,P85,-32.83,P30,2.424,P57,-24.22,P24,-1.165,P9,12.36,P73,7.538,P2
7586,C94,,31.2%,Max,193.5,P4,0.7395,P55,-10.73,P73,6.666,P22,-13.35,P67,0.5712,P55,30.63,P30,35.96,P24
7586,C94,,31.2%,Min,-65.25,P54,-0.8068,P85,-30.63,P30,2.424,P57,-35.96,P24,-0.8697,P9,10.73,P73,13.35,P67
7586,C94,,37.5%,Max,193.5,P4,0.7395,P55,-9.099,P73,6.666,P22,-18.50,P67,0.3033,P2,28.44,P30,46.86,P24
7586,C94,,37.5%,Min,-65.25,P54,-0.8068,P85,-28.44,P30,2.424,P57,-46.86,P24,-0.7042,P3,9.099,P73,18.50,P67
7586,C94,,43.7%,Max,193.5,P4,0.7395,P55,-7.470,P73,6.666,P22,-22.82,P69,0.3266,P4,26.24,P30,56.91,P24
7586,C94,,43.7%,Min,-65.25,P54,-0.8068,P85,-26.24,P30,2.424,P57,-56.91,P24,-0.5715,P5,7.471,P73,22.82,P69
7586,C94,,50.0%,Max,193.5,P4,0.7395,P55,-5.842,P73,6.666,P22,-25.98,P57,0.3562,P4,24.04,P30,66.12,P24
7586,C94,,50.0%,Min,-65.25,P54,-0.8068,P85,-24.04,P30,2.424,P57,-66.12,P24,-0.4451,P5,5.842,P73,25.98,P57
7586,C94,,50.0%,Max,171.4,P2,0.6265,P55,30.27,P25,-2.336,P55,-26.09,P57,0.6394,P55,30.27,P25,66.75,P24
7586,C94,,50.0%,Min,-60.98,P46,-0.7671,P85,10.37,P67,-6.728,P25,-66.75,P24,-1.011,P3,10.37,P67,26.10,P57
7586,C94,,56.2%,Max,171.4,P2,0.6265,P55,32.47,P25,-2.336,P55,-20.87,P77,0.4219,P2,32.47,P25,55.04,P22
7586,C94,,56.2%,Min,-60.98,P46,-0.7671,P85,12.00,P67,-6.728,P25,-55.04,P22,-0.8382,P3,12.00,P67,20.87,P77
7586,C94,,62.5%,Max,171.4,P2,0.6265,P55,34.66,P25,-2.336,P55,-14.57,P77,0.4305,P2,34.67,P25,42.68,P30
7586,C94,,62.5%,Min,-60.98,P46,-0.7671,P85,13.62,P67,-6.728,P25,-42.68,P30,-0.6651,P3,13.63,P67,14.57,P77
7586,C94,,68.7%,Max,171.4,P2,0.6265,P55,36.86,P25,-2.336,P55,-7.633,P73,0.4562,P4,36.87,P25,29.58,P30
7586,C94,,68.7%,Min,-60.98,P46,-0.7671,P85,15.25,P67,-6.728,P25,-29.58,P30,-0.5090,P5,15.25,P67,7.633,P73
7586,C94,,75.0%,Max,171.4,P2,0.6265,P55,39.06,P25,-2.336,P55,-0.06507,P49,0.5019,P4,39.07,P25,15.64,P30
7586,C94,,75.0%,Min,-60.98,P46,-0.7671,P85,16.88,P67,-6.728,P25,-15.64,P30,-0.3729,P5,16.88,P67,0.1183,P77
7586,C94,,75.0%,Max,143.8,P2,0.8822,P55,67.70,P25,-3.729,P55,4.497,P49,0.6667,P55,67.72,P25,6.522,P31
7586,C94,,75.0%,Min,-59.28,P46,-2.395,P3,27.55,P66,-10.73,P24,-6.507,P31,-1.799,P3,27.55,P66,0.1020,P50
7586,C94,,81.3%,Max,143.8,P2,0.8822,P55,69.89,P25,-3.729,P55,23.01,P13,0.9732,P2,69.92,P25,23.02,P13
7586,C94,,81.3%,Min,-59.28,P46,-2.395,P3,29.18,P66,-10.73,P24,8.452,P67,-1.539,P3,29.18,P66,8.452,P67
7586,C94,,87.5%,Max,143.8,P2,0.8822,P55,72.09,P25,-3.729,P55,50.28,P25,1.321,P2,72.12,P25,50.28,P25
7586,C94,,87.5%,Min,-59.28,P46,-2.395,P3,30.81,P66,-10.73,P24,19.98,P67,-1.280,P3,30.81,P66,19.98,P67
7586,C94,,93.8%,Max,143.8,P2,0.8822,P55,74.29,P25,-3.729,P55,78.42,P25,1.668,P2,74.32,P25,78.42,P25
7586,C94,,93.8%,Min,-59.28,P46,-2.395,P3,32.43,P66,-10.73,P24,32.14,P66,-1.020,P3,32.44,P66,32.14,P66
7586,C94,5042,100.0%,Max,143.8,P2,0.8822,P55,76.49,P25,-3.729,P55,107.4,P25,2.015,P2,76.51,P25,107.4,P25
7586,C94,5042,100.0%,Min,-59.28,P46,-2.395,P3,34.06,P66,-10.73,P24,44.92,P66,-0.7603,P3,34.07,P66,44.92,P66
7587,C94,5042,0.0%,Max,106.8,P2,1.591,P46,-28.23,P48,9.831,P6,90.62,P33,1.534,P2,66.14,P33,90.62,P33
7587,C94,5042,0.0%,Min,-60.60,P3,-1.755,P3,-66.14,P33,3.076,P91,38.83,P48,-1.730,P3,28.26,P48,38.85,P48
7587,C94,,8.3%,Max,106.8,P2,1.591,P46,-26.75,P48,9.831,P6,67.98,P33,1.340,P2,64.15,P33,67.98,P33
7587,C94,,8.3%,Min,-60.60,P3,-1.755,P3,-64.15,P33,3.076,P91,28.76,P3,-1.464,P3,26.79,P48,28.80,P3
7587,C94,,16.7%,Max,106.8,P2,1.591,P46,-25.28,P48,9.831,P6,46.03,P33,1.146,P2,62.17,P33,46.03,P33
7587,C94,,16.7%,Min,-60.60,P3,-1.755,P3,-62.16,P33,3.076,P91,19.13,P3,-1.198,P3,25.32,P48,19.16,P3
7587,C94,,25.0%,Max,106.8,P2,1.591,P46,-23.81,P48,9.831,P6,25.12,P21,0.9517,P2,60.18,P33,25.12,P21
7587,C94,,25.0%,Min,-60.60,P3,-1.755,P3,-60.18,P33,3.076,P91,10.00,P3,-0.9323,P3,23.85,P48,10.05,P3
7587,C94,,33.3%,Max,106.8,P2,1.591,P46,-22.34,P48,9.831,P6,7.737,P2,0.7574,P2,58.19,P33,7.774,P2
7587,C94,,33.3%,Min,-60.60,P3,-1.755,P3,-58.19,P33,3.076,P91,1.391,P3,-0.7823,P46,22.38,P48,1.542,P3
7587,C94,,33.3%,Max,60.94,P2,0.6337,P78,-7.189,P2,0.9777,P7,4.536,P69,0.5872,P78,24.51,P21,4.539,P69
7587,C94,,33.3%,Min,-40.86,P3,-0.5889,P9,-24.51,P21,-0.1667,P60,-2.394,P28,-0.4732,P3,7.208,P2,0.1826,P17
7587,C94,,41.7%,Max,60.94,P2,0.6337,P78,-5.716,P2,0.9777,P7,0.9284,P2,0.5193,P2,22.52,P21,10.28,P31
7587,C94,,41.7%,Min,-40.86,P3,-0.5889,P9,-22.52,P21,-0.1667,P60,-10.28,P31,-0.4056,P3,5.741,P2,0.2495,P37
7587,C94,,50.0%,Max,60.94,P2,0.6337,P78,-4.244,P2,0.9777,P7,-1.833,P2,0.4636,P2,20.54,P21,17.63,P31
7587,C94,,50.0%,Min,-40.86,P3,-0.5889,P9,-20.54,P21,-0.1667,P60,-17.63,P31,-0.3380,P3,4.277,P2,1.891,P2
7587,C94,,58.3%,Max,60.94,P2,0.6337,P78,-2.771,P2,0.9777,P7,-4.083,P2,0.4080,P2,18.55,P21,24.28,P31
7587,C94,,58.3%,Min,-40.86,P3,-0.5889,P9,-18.55,P21,-0.1667,P60,-24.28,P31,-0.2705,P3,2.822,P2,4.103,P2
7587,C94,,66.7%,Max,60.94,P2,0.6337,P78,-1.299,P2,0.9777,P7,-5.821,P2,0.3823,P9,16.56,P21,30.24,P31
7587,C94,,66.7%,Min,-40.86,P3,-0.5889,P9,-16.56,P21,-0.1667,P60,-30.24,P31,-0.2938,P78,1.403,P2,5.832,P2
7587,C94,,66.7%,Max,17.74,P2,1.073,P2,27.12,P24,-3.849,P81,-4.336,P2,0.7404,P2,27.13,P24,29.28,P31
7587,C94,,66.7%,Min,-15.48,P3,-1.686,P3,3.447,P3,-11.40,P24,-29.28,P31,-0.9395,P3,3.530,P69,4.398,P2
7587,C94,,75.0%,Max,17.74,P2,1.073,P2,29.11,P24,-3.849,P81,2.137,P2,0.9272,P2,29.12,P24,21.29,P19
7587,C94,,75.0%,Min,-15.48,P3,-1.686,P3,4.919,P3,-11.40,P24,-21.29,P19,-0.9134,P3,4.995,P69,1.330,P4
7587,C94,,83.3%,Max,17.74,P2,1.073,P2,31.10,P24,-3.849,P81,9.121,P2,1.114,P2,31.10,P24,19.28,P3
7587,C94,,83.3%,Min,-15.48,P3,-1.686,P3,6.392,P3,-11.40,P24,-19.26,P3,-0.8873,P3,6.463,P69,0.2523,P36
7587,C94,,91.7%,Max,17.74,P2,1.073,P2,33.08,P24,-3.849,P81,16.62,P2,1.301,P2,33.09,P24,16.77,P3
7587,C94,,91.7%,Min,-15.48,P3,-1.686,P3,7.864,P3,-11.40,P24,-16.75,P3,-0.8611,P3,7.933,P69,0.4108,P65
7587,C94,5045,100.0%,Max,17.74,P2,1.073,P2,35.07,P24,-3.849,P81,24.63,P2,1.488,P2,35.08,P24,24.67,P2
7587,C94,5045,100.0%,Min,-15.48,P3,-1.686,P3,9.336,P3,-11.40,P24,-13.73,P3,-0.8350,P3,9.404,P69,0.4086,P34
7588,C94,7735,0.0%,Max,10.31,P4,1.663,P4,-81.72,P69,-0.5083,P68,45.37,P31,1.398,P4,197.3,P24,45.37,P31
7588,C94,7735,0.0%,Min,-14.46,P5,-1.523,P5,-197.3,P24,-3.520,P28,10.42,P5,-1.272,P5,81.72,P69,10.50,P5
7588,C94,,4.2%,Max,10.31,P4,1.663,P4,-79.51,P69,-0.5083,P68,-6.399,P4,1.331,P4,194.3,P24,33.83,P32
7588,C94,,4.2%,Min,-14.46,P5,-1.523,P5,-194.3,P24,-3.520,P28,-33.83,P32,-1.260,P5,79.51,P69,6.536,P4
7588,C94,,8.3%,Max,10.31,P4,1.663,P4,-77.29,P69,-0.5083,P68,-42.46,P55,1.265,P4,191.3,P24,109.0,P8
7588,C94,,8.3%,Min,-14.46,P5,-1.523,P5,-191.3,P24,-3.520,P28,-109.0,P8,-1.248,P5,77.29,P69,42.46,P55
7588,C94,,12.5%,Max,10.31,P4,1.663,P4,-75.07,P69,-0.5083,P68,-73.29,P55,1.198,P4,188.3,P24,183.1,P8
7588,C94,,12.5%,Min,-14.46,P5,-1.523,P5,-188.3,P24,-3.520,P28,-183.1,P8,-1.237,P5,75.07,P69,73.29,P55
7588,C94,,16.7%,Max,10.31,P4,1.663,P4,-72.86,P69,-0.5083,P68,-103.2,P55,1.132,P4,185.3,P24,256.0,P8
7588,C94,,16.7%,Min,-14.46,P5,-1.523,P5,-185.3,P24,-3.520,P28,-256.0,P8,-1.225,P5,72.86,P69,103.2,P55
7588,C94,,16.7%,Max,13.52,P2,1.429,P4,-46.03,P68,0.5220,P59,-113.4,P55,0.9045,P4,116.1,P28,280.5,P8
7588,C94,,16.7%,Min,-18.21,P3,-1.846,P5,-116.1,P28,-2.242,P16,-280.5,P8,-1.125,P5,46.03,P68,113.4,P55
7588,C94,,20.8%,Max,13.52,P2,1.429,P4,-43.82,P68,0.5220,P59,-132.8,P55,1.125,P4,113.1,P28,325.1,P29
7588,C94,,20.8%,Min,-18.21,P3,-1.846,P5,-113.1,P28,-2.242,P16,-325.1,P29,-1.181,P5,43.82,P68,132.8,P55
7588,C94,,25.0%,Max,13.52,P2,1.429,P4,-41.60,P68,0.5220,P59,-150.0,P69,1.345,P4,110.1,P28,368.9,P29
7588,C94,,25.0%,Min,-18.21,P3,-1.846,P5,-110.1,P28,-2.242,P16,-368.9,P29,-1.237,P5,41.60,P68,150.0,P69
7588,C94,,29.2%,Max,13.52,P2,1.429,P4,-39.38,P68,0.5220,P59,-165.9,P69,1.565,P4,107.1,P28,411.5,P29
7588,C94,,29.2%,Min,-18.21,P3,-1.846,P5,-107.1,P28,-2.242,P16,-411.5,P29,-1.294,P5,39.38,P68,165.9,P69
7588,C94,,33.3%,Max,13.52,P2,1.429,P4,-37.17,P68,0.5220,P59,-181.0,P69,1.785,P4,104.2,P28,453.0,P29
7588,C94,,33.3%,Min,-18.21,P3,-1.846,P5,-104.2,P28,-2.242,P16,-453.0,P29,-1.350,P5,37.17,P68,181.0,P69
7588,C94,,33.3%,Max,15.62,P2,1.206,P4,-6.864,P2,-1.266,P92,-186.9,P69,0.7796,P2,18.94,P22,467.7,P29
7588,C94,,33.3%,Min,-24.76,P3,-1.438,P5,-18.93,P22,-3.720,P31,-467.7,P29,-0.8567,P3,6.961,P2,186.9,P69
7588,C94,,37.5%,Max,15.62,P2,1.206,P4,-4.647,P2,-1.266,P92,-189.7,P69,0.9340,P4,15.94,P22,474.3,P29
7588,C94,,37.5%,Min,-24.76,P3,-1.438,P5,-15.94,P22,-3.720,P31,-474.3,P29,-0.9199,P5,4.790,P2,189.7,P69
7588,C94,,41.7%,Max,15.62,P2,1.206,P4,-2.431,P2,-1.266,P92,-191.7,P69,1.123,P4,12.95,P22,479.8,P29
7588,C94,,41.7%,Min,-24.76,P3,-1.438,P5,-12.95,P22,-3.720,P31,-479.8,P29,-1.018,P5,2.693,P2,191.7,P69
7588,C94,,45.8%,Max,15.62,P2,1.206,P4,-0.2143,P2,-1.266,P92,-192.7,P69,1.312,P4,9.959,P22,484.0,P28
7588,C94,,45.8%,Min,-24.76,P3,-1.438,P5,-9.957,P22,-3.720,P31,-484.0,P28,-1.116,P5,1.179,P2,192.7,P69
7588,C94,,50.0%,Max,15.62,P2,1.206,P4,2.002,P2,-1.266,P92,-192.9,P69,1.501,P4,6.968,P22,487.2,P24
7588,C94,,50.0%,Min,-24.76,P3,-1.438,P5,-6.965,P22,-3.720,P31,-487.2,P24,-1.213,P5,0.04424,P82,192.9,P69
7588,C94,,50.0%,Max,22.58,P2,1.483,P2,79.35,P8,4.840,P28,-188.0,P69,1.189,P4,79.35,P8,475.6,P24
7588,C94,,50.0%,Min,-31.68,P3,-1.254,P3,29.50,P55,1.481,P47,-475.6,P24,-1.016,P5,29.50,P55,188.0,P69
7588,C94,,54.2%,Max,22.58,P2,1.483,P2,82.35,P8,4.840,P28,-175.1,P69,1.133,P4,82.35,P8,444.2,P24
7588,C94,,54.2%,Min,-31.68,P3,-1.254,P3,31.71,P55,1.481,P47,-444.2,P24,-1.050,P5,31.72,P55,175.1,P69
7588,C94,,58.3%,Max,22.58,P2,1.483,P2,85.34,P8,4.840,P28,-161.2,P69,1.082,P2,85.34,P8,411.7,P24
7588,C94,,58.3%,Min,-31.68,P3,-1.254,P3,33.93,P55,1.481,P47,-411.7,P24,-1.089,P3,33.93,P55,161.2,P69
7588,C94,,62.5%,Max,22.58,P2,1.483,P2,88.33,P8,4.840,P28,-146.6,P69,1.040,P2,88.33,P8,377.9,P24
7588,C94,,62.5%,Min,-31.68,P3,-1.254,P3,36.15,P55,1.481,P47,-377.9,P24,-1.136,P3,36.15,P55,146.6,P69
7588,C94,,66.7%,Max,22.58,P2,1.483,P2,91.32,P8,4.840,P28,-131.0,P69,0.9972,P2,91.32,P8,343.0,P24
7588,C94,,66.7%,Min,-31.68,P3,-1.254,P3,38.36,P55,1.481,P47,-343.0,P24,-1.183,P3,38.36,P55,131.0,P69
7588,C94,,66.7%,Max,32.14,P2,2.204,P4,206.7,P8,5.105,P29,-120.6,P69,1.634,P4,206.7,P8,317.6,P24
7588,C94,,66.7%,Min,-36.71,P3,-1.637,P5,81.01,P46,1.381,P46,-317.6,P24,-1.321,P5,81.01,P46,120.6,P69
7588,C94,,70.8%,Max,32.14,P2,2.204,P4,209.7,P8,5.105,P29,-87.31,P69,1.544,P4,209.7,P8,236.2,P24
7588,C94,,70.8%,Min,-36.71,P3,-1.637,P5,83.23,P46,1.381,P46,-236.2,P24,-1.452,P5,83.23,P46,87.32,P69
7588,C94,,75.0%,Max,32.14,P2,2.204,P4,212.7,P8,5.105,P29,-53.16,P69,1.453,P4,212.7,P8,153.7,P24
7588,C94,,75.0%,Min,-36.71,P3,-1.637,P5,85.44,P46,1.381,P46,-153.7,P24,-1.584,P5,85.44,P46,53.16,P69
7588,C94,,79.2%,Max,32.14,P2,2.204,P4,215.7,P8,5.105,P29,-18.14,P69,1.362,P4,215.7,P8,69.99,P24
7588,C94,,79.2%,Min,-36.71,P3,-1.637,P5,87.66,P46,1.381,P46,-69.99,P24,-1.716,P5,87.66,P46,18.15,P69
7588,C94,,83.3%,Max,32.14,P2,2.204,P4,218.7,P8,5.105,P29,24.45,P21,1.271,P4,218.7,P8,24.45,P21
7588,C94,,83.3%,Min,-36.71,P3,-1.637,P5,89.88,P46,1.381,P46,-4.907,P3,-1.848,P5,89.88,P46,1.018,P77
7588,C94,,83.3%,Max,46.20,P2,3.520,P2,277.8,P8,5.663,P28,68.86,P33,2.196,P2,277.8,P8,68.86,P33
7588,C94,,83.3%,Min,-40.63,P3,-2.518,P3,111.0,P46,1.338,P68,17.91,P48,-1.708,P3,111.0,P46,17.91,P48
7588,C94,,87.5%,Max,46.20,P2,3.520,P2,280.7,P8,5.663,P28,178.0,P33,2.215,P2,280.7,P8,178.0,P33
7588,C94,,87.5%,Min,-40.63,P3,-2.518,P3,113.2,P46,1.338,P68,62.89,P48,-2.119,P3,113.2,P46,62.89,P48
7588,C94,,91.7%,Max,46.20,P2,3.520,P2,283.7,P8,5.663,P28,288.2,P33,2.233,P2,283.7,P8,288.2,P33
7588,C94,,91.7%,Min,-40.63,P3,-2.518,P3,115.4,P46,1.338,P68,108.7,P48,-2.531,P3,115.4,P46,108.7,P48
7588,C94,,95.8%,Max,46.20,P2,3.520,P2,286.7,P8,5.663,P28,399.7,P33,2.251,P2,286.7,P8,399.7,P33
7588,C94,,95.8%,Min,-40.63,P3,-2.518,P3,117.7,P46,1.338,P68,155.5,P48,-2.942,P3,117.7,P46,155.5,P48
7588,C94,6210,100.0%,Max,46.20,P2,3.520,P2,289.7,P8,5.663,P28,512.3,P33,2.270,P2,289.7,P8,512.3,P33
7588,C94,6210,100.0%,Min,-40.63,P3,-2.518,P3,119.9,P46,1.338,P68,203.1,P48,-3.354,P3,119.9,P46,203.1,P48
7589,C94,6210,0.0%,Max,53.26,P4,11.93,P2,-90.79,P55,0.5781,P2,493.5,P8,10.24,P2,218.9,P32,493.5,P8
7589,C94,6210,0.0%,Min,-76.80,P5,-7.692,P3,-218.9,P32,-0.4342,P3,198.6,P55,-6.844,P3,90.83,P55,198.6,P55
7589,C94,,5.0%,Max,53.26,P4,11.93,P2,-88.56,P55,0.5781,P2,407.6,P8,9.019,P2,215.9,P32,407.6,P8
7589,C94,,5.0%,Min,-76.80,P5,-7.692,P3,-215.9,P32,-0.4342,P3,163.1,P55,-7.296,P3,88.59,P55,163.1,P55
7589,C94,,10.0%,Max,53.26,P4,11.93,P2,-86.32,P55,0.5781,P2,322.8,P8,7.793,P2,212.9,P32,322.8,P8
7589,C94,,10.0%,Min,-76.80,P5,-7.692,P3,-212.9,P32,-0.4342,P3,128.5,P55,-7.748,P3,86.36,P55,128.5,P55
7589,C94,,15.0%,Max,53.26,P4,11.93,P2,-84.08,P55,0.5781,P2,239.2,P8,6.568,P2,209.9,P32,239.2,P8
7589,C94,,15.0%,Min,-76.80,P5,-7.692,P3,-209.9,P32,-0.4342,P3,94.25,P46,-8.200,P3,84.12,P55,94.26,P46
7589,C94,,20.0%,Max,53.26,P4,11.93,P2,-81.85,P55,0.5781,P2,156.8,P8,5.343,P2,206.9,P32,156.8,P8
7589,C94,,20.0%,Min,-76.80,P5,-7.692,P3,-206.9,P32,-0.4342,P3,60.73,P46,-8.652,P3,81.88,P55,60.79,P46
7589,C94,,20.0%,Max,69.29,P4,7.404,P2,-52.78,P55,2.587,P24,122.3,P8,5.778,P2,127.7,P33,122.3,P8
7589,C94,,20.0%,Min,-104.5,P5,-4.842,P3,-127.7,P33,0.8001,P68,47.89,P46,-4.007,P3,52.80,P55,47.91,P46
7589,C94,,25.0%,Max,69.29,P4,7.404,P2,-50.54,P55,2.587,P24,72.39,P8,5.257,P2,124.7,P33,72.39,P8
7589,C94,,25.0%,Min,-104.5,P5,-4.842,P3,-124.7,P33,0.8001,P68,24.54,P3,-4.500,P3,50.57,P55,24.95,P3
7589,C94,,30.0%,Max,69.29,P4,7.404,P2,-48.31,P55,2.587,P24,26.60,P2,4.736,P2,121.7,P33,27.02,P2
7589,C94,,30.0%,Min,-104.5,P5,-4.842,P3,-121.7,P33,0.8001,P68,-1.893,P3,-4.994,P3,48.33,P55,4.990,P5
7589,C94,,35.0%,Max,69.29,P4,7.404,P2,-46.07,P55,2.587,P24,5.036,P2,4.215,P2,118.7,P33,27.98,P3
7589,C94,,35.0%,Min,-104.5,P5,-4.842,P3,-118.7,P33,0.8001,P68,-27.44,P3,-5.487,P3,46.09,P55,5.200,P4
7589,C94,,40.0%,Max,69.29,P4,7.404,P2,-43.83,P55,2.587,P24,-15.65,P2,3.694,P2,115.6,P33,72.53,P22
7589,C94,,40.0%,Min,-104.5,P5,-4.842,P3,-115.6,P33,0.8001,P68,-72.50,P22,-5.981,P3,43.86,P55,16.08,P2
7589,C94,,40.0%,Max,102.9,P2,5.750,P4,-5.912,P4,1.658,P24,-21.46,P2,4.040,P4,17.10,P8,84.47,P22
7589,C94,,40.0%,Min,-146.3,P3,-4.126,P5,-17.08,P8,0.5354,P3,-84.46,P22,-3.090,P5,7.243,P55,21.81,P2
7589,C94,,45.0%,Max,102.9,P2,5.750,P4,-3.675,P4,1.658,P24,-25.31,P2,3.896,P4,14.08,P8,90.42,P32
7589,C94,,45.0%,Min,-146.3,P3,-4.126,P5,-14.06,P8,0.5354,P3,-90.42,P32,-3.589,P5,5.024,P54,25.59,P2
7589,C94,,50.0%,Max,102.9,P2,5.750,P4,-1.439,P4,1.658,P24,-28.27,P2,3.752,P4,11.08,P25,95.32,P32
7589,C94,,50.0%,Min,-146.3,P3,-4.126,P5,-11.04,P8,0.5354,P3,-95.32,P32,-4.089,P5,2.795,P54,28.51,P2
7589,C94,,55.0%,Max,102.9,P2,5.750,P4,0.7981,P4,1.658,P24,-30.35,P2,3.608,P4,8.201,P25,99.02,P32
7589,C94,,55.0%,Min,-146.3,P3,-4.126,P5,-8.024,P8,0.5354,P3,-99.02,P32,-4.588,P5,0.6262,P54,30.56,P2
7589,C94,,60.0%,Max,102.9,P2,5.750,P4,3.035,P4,1.658,P24,-31.55,P2,3.464,P4,6.502,P4,101.6,P33
7589,C94,,60.0%,Min,-146.3,P3,-4.126,P5,-5.005,P8,0.5354,P3,-101.6,P33,-5.088,P5,0.2754,P83,31.73,P2
7589,C94,,60.0%,Max,145.7,P2,6.478,P2,91.93,P31,-0.3864,P2,-28.42,P2,4.113,P2,91.94,P31,94.19,P33
7589,C94,,60.0%,Min,-201.6,P3,-5.071,P3,35.21,P93,-1.626,P8,-94.19,P33,-3.553,P3,35.30,P93,28.71,P2
7589,C94,,65.0%,Max,145.7,P2,6.478,P2,94.95,P31,-0.3864,P2,-11.71,P2,4.225,P2,94.96,P31,57.64,P33
7589,C94,,65.0%,Min,-201.6,P3,-5.071,P3,37.45,P93,-1.626,P8,-57.64,P33,-4.222,P3,37.53,P93,12.45,P2
7589,C94,,70.0%,Max,145.7,P2,6.478,P2,97.97,P31,-0.3864,P2,5.881,P2,4.337,P2,97.98,P31,21.66,P3
7589,C94,,70.0%,Min,-201.6,P3,-5.071,P3,39.69,P93,-1.626,P8,-21.10,P3,-4.890,P3,39.76,P93,1.957,P55
7589,C94,,75.0%,Max,145.7,P2,6.478,P2,101.0,P31,-0.3864,P2,25.31,P4,4.448,P2,101.0,P31,25.68,P4
7589,C94,,75.0%,Min,-201.6,P3,-5.071,P3,41.92,P93,-1.626,P8,-0.8664,P5,-5.559,P3,41.99,P93,5.497,P5
7589,C94,,80.0%,Max,145.7,P2,6.478,P2,104.0,P31,-0.3864,P2,63.89,P31,4.560,P2,104.0,P31,63.90,P31
7589,C94,,80.0%,Min,-201.6,P3,-5.071,P3,44.16,P93,-1.626,P8,20.01,P5,-6.228,P3,44.23,P93,20.92,P5
7589,C94,,80.0%,Max,187.9,P2,11.66,P2,175.7,P30,-0.5355,P2,90.06,P31,7.584,P2,175.7,P30,90.06,P31
7589,C94,,80.0%,Min,-261.6,P3,-10.08,P3,70.73,P85,-2.305,P8,31.81,P5,-7.177,P3,70.73,P85,32.36,P5
7589,C94,,85.0%,Max,187.9,P2,11.66,P2,178.7,P30,-0.5355,P2,160.1,P31,7.912,P2,178.7,P30,160.1,P31
7589,C94,,85.0%,Min,-261.6,P3,-10.08,P3,72.96,P85,-2.305,P8,62.61,P69,-8.129,P3,72.97,P85,62.63,P69
7589,C94,,90.0%,Max,187.9,P2,11.66,P2,181.7,P30,-0.5355,P2,231.4,P31,8.240,P2,181.7,P30,231.4,P31
7589,C94,,90.0%,Min,-261.6,P3,-10.08,P3,75.20,P85,-2.305,P8,92.05,P69,-9.081,P3,75.20,P85,92.05,P69
7589,C94,,95.0%,Max,187.9,P2,11.66,P2,184.8,P30,-0.5355,P2,303.9,P31,8.567,P2,184.8,P30,303.9,P31
7589,C94,,95.0%,Min,-261.6,P3,-10.08,P3,77.44,P85,-2.305,P8,122.4,P69,-10.03,P3,77.44,P85,122.4,P69
7589,C94,6416,100.0%,Max,187.9,P2,11.66,P2,187.8,P30,-0.5355,P2,377.5,P31,8.895,P2,187.8,P30,377.5,P31
7589,C94,6416,100.0%,Min,-261.6,P3,-10.08,P3,79.67,P85,-2.305,P8,153.6,P69,-10.99,P3,79.68,P85,153.7,P69
7590,C94,7730,0.0%,Max,229.2,P4,8.118,P2,-55.33,P49,1.889,P33,282.3,P30,6.097,P2,139.4,P33,282.3,P30
7590,C94,7730,0.0%,Min,-317.9,P5,-14.14,P3,-139.4,P33,0.5223,P3,106.4,P49,-10.25,P3,56.16,P49,106.7,P49
7590,C94,,6.2%,Max,229.2,P4,8.118,P2,-53.34,P49,1.889,P33,233.7,P30,7.020,P2,136.7,P33,233.7,P30
7590,C94,,6.2%,Min,-317.9,P5,-14.14,P3,-136.7,P33,0.5223,P3,87.28,P49,-9.055,P3,54.20,P49,87.38,P49
7590,C94,,12.5%,Max,229.2,P4,8.118,P2,-51.35,P49,1.889,P33,186.1,P8,7.943,P2,134.1,P33,186.1,P8
7590,C94,,12.5%,Min,-317.9,P5,-14.14,P3,-134.1,P33,0.5223,P3,68.84,P49,-7.855,P3,52.25,P49,68.85,P49
7590,C94,,18.7%,Max,229.2,P4,8.118,P2,-49.36,P49,1.889,P33,139.5,P8,8.866,P2,131.4,P33,139.5,P8
7590,C94,,18.7%,Min,-317.9,P5,-14.14,P3,-131.4,P33,0.5223,P3,51.11,P49,-6.655,P3,50.29,P49,51.18,P49
7590,C94,,25.0%,Max,229.2,P4,8.118,P2,-47.37,P49,1.889,P33,93.95,P8,9.789,P2,128.7,P33,93.98,P8
7590,C94,,25.0%,Min,-317.9,P5,-14.14,P3,-128.7,P33,0.5223,P3,34.07,P49,-5.456,P3,48.34,P49,34.62,P49
7590,C94,,25.0%,Max,229.4,P4,4.784,P2,-26.98,P49,1.826,P25,80.46,P8,3.085,P69,74.77,P33,80.47,P8
7590,C94,,25.0%,Min,-324.6,P5,-8.404,P3,-74.77,P33,0.5522,P67,28.77,P49,-5.019,P3,27.70,P49,29.06,P49
7590,C94,,31.2%,Max,229.4,P4,4.784,P2,-24.99,P49,1.826,P25,54.82,P8,4.020,P2,72.08,P33,54.82,P8
7590,C94,,31.2%,Min,-324.6,P5,-8.404,P3,-72.08,P33,0.5522,P67,18.57,P3,-4.739,P3,25.76,P49,19.17,P3
7590,C94,,37.5%,Max,229.4,P4,4.784,P2,-23.01,P49,1.826,P25,30.12,P8,5.015,P2,69.40,P33,30.12,P8
7590,C94,,37.5%,Min,-324.6,P5,-8.404,P3,-69.40,P33,0.5522,P67,7.190,P3,-4.459,P3,23.84,P49,8.460,P3
7590,C94,,43.7%,Max,229.4,P4,4.784,P2,-21.02,P49,1.826,P25,10.57,P2,6.011,P2,66.71,P33,12.16,P2
7590,C94,,43.7%,Min,-324.6,P5,-8.404,P3,-66.71,P33,0.5522,P67,-3.493,P3,-4.180,P3,21.93,P49,0.6978,P56
7590,C94,,50.0%,Max,229.4,P4,4.784,P2,-19.03,P49,1.826,P25,-0.8531,P2,7.006,P2,64.03,P33,18.57,P33
7590,C94,,50.0%,Min,-324.6,P5,-8.404,P3,-64.03,P33,0.5522,P67,-18.56,P33,-3.900,P3,20.03,P49,4.816,P64
7590,C94,,50.0%,Max,222.6,P4,4.132,P69,46.10,P25,-0.4921,P55,-1.361,P2,2.587,P69,46.36,P25,19.32,P33
7590,C94,,50.0%,Min,-323.8,P5,-7.097,P3,13.09,P69,-1.484,P8,-19.32,P33,-3.701,P3,13.51,P66,2.605,P2
7590,C94,,56.2%,Max,222.6,P4,4.132,P69,48.78,P25,-0.4921,P55,7.310,P2,3.323,P2,49.03,P25,8.030,P2
7590,C94,,56.2%,Min,-323.8,P5,-7.097,P3,15.08,P69,-1.484,P8,-6.580,P3,-3.639,P3,15.47,P66,0.3302,P38
7590,C94,,62.5%,Max,222.6,P4,4.132,P69,51.47,P25,-0.4921,P55,18.62,P13,4.425,P2,51.71,P25,18.64,P13
7590,C94,,62.5%,Min,-323.8,P5,-7.097,P3,17.07,P69,-1.484,P8,0.8777,P69,-3.576,P3,17.44,P66,0.9356,P69
7590,C94,,68.7%,Max,222.6,P4,4.132,P69,54.16,P25,-0.4921,P55,37.03,P25,5.527,P2,54.38,P25,37.12,P25
7590,C94,,68.7%,Min,-323.8,P5,-7.097,P3,19.05,P69,-1.484,P8,7.239,P69,-3.514,P3,19.42,P66,7.454,P69
7590,C94,,75.0%,Max,222.6,P4,4.132,P69,56.84,P25,-0.4921,P55,56.58,P25,6.630,P2,57.06,P25,56.74,P25
7590,C94,,75.0%,Min,-323.8,P5,-7.097,P3,21.04,P69,-1.484,P8,14.30,P69,-3.451,P3,21.39,P66,14.66,P69
7590,C94,,75.0%,Max,213.7,P4,5.066,P69,109.8,P25,-0.1550,P2,68.84,P25,2.798,P69,110.0,P25,68.90,P25
7590,C94,,75.0%,Min,-317.9,P5,-7.924,P13,41.54,P69,-1.149,P33,19.17,P69,-4.055,P3,41.71,P66,19.37,P69
7590,C94,,81.3%,Max,213.7,P4,5.066,P69,112.5,P25,-0.1550,P2,108.0,P25,3.757,P2,112.7,P25,108.0,P25
7590,C94,,81.3%,Min,-317.9,P5,-7.924,P13,43.53,P69,-1.149,P33,34.15,P69,-3.893,P3,43.69,P66,34.17,P69
7590,C94,,87.5%,Max,213.7,P4,5.066,P69,115.2,P25,-0.1550,P2,148.1,P25,5.044,P2,115.4,P25,148.1,P25
7590,C94,,87.5%,Min,-317.9,P5,-7.924,P13,45.52,P69,-1.149,P33,49.83,P69,-3.731,P3,45.68,P66,49.84,P69
7590,C94,,93.8%,Max,213.7,P4,5.066,P69,117.9,P25,-0.1550,P2,189.1,P25,6.331,P2,118.0,P25,189.2,P25
7590,C94,,93.8%,Min,-317.9,P5,-7.924,P13,47.51,P69,-1.149,P33,66.21,P69,-3.569,P3,47.66,P66,66.26,P69
7590,C94,7717,100.0%,Max,213.7,P4,5.066,P69,120.6,P25,-0.1550,P2,231.1,P25,7.618,P2,120.7,P25,231.2,P25
7590,C94,7717,100.0%,Min,-317.9,P5,-7.924,P13,49.50,P69,-1.149,P33,83.30,P69,-4.339,P69,49.65,P66,83.41,P69
7591,C94,6072,0.0%,Max,205.4,P4,3.841,P2,-66.95,P77,11.07,P33,191.3,P33,3.643,P2,172.7,P32,191.3,P33
7591,C94,6072,0.0%,Min,-257.5,P5,-1.169,P3,-172.7,P32,4.109,P48,47.74,P49,-0.9474,P3,66.96,P77,47.76,P49
7591,C94,,5.0%,Max,205.4,P4,3.841,P2,-65.04,P77,11.07,P33,133.4,P33,3.001,P2,170.1,P32,133.4,P33
7591,C94,,5.0%,Min,-257.5,P5,-1.169,P3,-170.1,P32,4.109,P48,25.32,P49,-1.209,P3,65.05,P77,25.35,P49
7591,C94,,10.0%,Max,205.4,P4,3.841,P2,-63.13,P77,11.07,P33,76.35,P33,2.359,P2,167.5,P32,76.35,P33
7591,C94,,10.0%,Min,-257.5,P5,-1.169,P3,-167.5,P32,4.109,P48,2.796,P3,-1.470,P3,63.14,P77,3.159,P3
7591,C94,,15.0%,Max,205.4,P4,3.841,P2,-61.22,P77,11.07,P33,24.15,P21,1.721,P4,165.0,P32,24.16,P21
7591,C94,,15.0%,Min,-257.5,P5,-1.169,P3,-164.9,P32,4.109,P48,-21.53,P3,-1.735,P5,61.23,P77,0.2897,P7
7591,C94,,20.0%,Max,205.4,P4,3.841,P2,-59.32,P77,11.07,P33,-4.127,P69,1.241,P4,162.4,P32,52.57,P13
7591,C94,,20.0%,Min,-257.5,P5,-1.169,P3,-162.4,P32,4.109,P48,-52.57,P13,-2.159,P5,59.32,P77,4.366,P69
7591,C94,,20.0%,Max,206.4,P4,3.432,P2,-40.89,P49,-0.2755,P2,-12.49,P69,3.616,P2,119.9,P33,70.22,P25
7591,C94,,20.0%,Min,-269.9,P5,-1.082,P3,-119.9,P33,-2.112,P33,-70.19,P25,-1.247,P3,40.90,P49,12.49,P69
7591,C94,,25.0%,Max,206.4,P4,3.432,P2,-38.98,P49,-0.2755,P2,-30.97,P69,2.974,P2,117.4,P33,108.2,P25
7591,C94,,25.0%,Min,-269.9,P5,-1.082,P3,-117.3,P33,-2.112,P33,-108.2,P25,-1.400,P3,38.99,P49,30.98,P69
7591,C94,,30.0%,Max,206.4,P4,3.432,P2,-37.07,P49,-0.2755,P2,-48.16,P67,2.332,P2,114.8,P33,145.3,P25
7591,C94,,30.0%,Min,-269.9,P5,-1.082,P3,-114.8,P33,-2.112,P33,-145.3,P25,-1.552,P3,37.09,P49,48.16,P67
7591,C94,,35.0%,Max,206.4,P4,3.432,P2,-35.16,P49,-0.2755,P2,-64.65,P67,1.690,P2,112.2,P33,181.6,P25
7591,C94,,35.0%,Min,-269.9,P5,-1.082,P3,-112.2,P33,-2.112,P33,-181.6,P25,-1.704,P3,35.18,P49,64.65,P67
7591,C94,,40.0%,Max,206.4,P4,3.432,P2,-33.25,P49,-0.2755,P2,-80.50,P67,1.340,P4,109.6,P33,217.0,P25
7591,C94,,40.0%,Min,-269.9,P5,-1.082,P3,-109.6,P33,-2.112,P33,-217.0,P25,-2.149,P5,33.27,P49,80.50,P67
7591,C94,,40.0%,Max,200.6,P2,3.370,P4,10.95,P2,-0.9867,P49,-80.06,P67,2.994,P2,11.71,P3,214.5,P25
7591,C94,,40.0%,Min,-269.1,P3,-2.003,P5,-11.55,P3,-3.533,P33,-214.5,P25,-1.692,P3,0.6186,P51,80.06,P67
7591,C94,,45.0%,Max,200.6,P2,3.370,P4,12.86,P2,-0.9867,P49,-80.66,P55,2.578,P2,13.28,P2,213.7,P25
7591,C94,,45.0%,Min,-269.1,P3,-2.003,P5,-9.638,P3,-3.533,P33,-213.7,P25,-1.739,P3,0.2237,P84,80.66,P55
7591,C94,,50.0%,Max,200.6,P2,3.370,P4,14.77,P2,-0.9867,P49,-80.19,P55,2.163,P2,15.13,P2,212.1,P25
7591,C94,,50.0%,Min,-269.1,P3,-2.003,P5,-7.729,P3,-3.533,P33,-212.1,P25,-1.787,P3,0.2216,P42,80.19,P55
7591,C94,,55.0%,Max,200.6,P2,3.370,P4,16.68,P2,-0.9867,P49,-79.07,P55,1.897,P4,17.00,P2,210.1,P8
7591,C94,,55.0%,Min,-269.1,P3,-2.003,P5,-5.820,P3,-3.533,P33,-210.1,P8,-1.982,P5,0.2100,P66,79.07,P55
7591,C94,,60.0%,Max,200.6,P2,3.370,P4,18.59,P2,-0.9867,P49,-77.30,P55,1.703,P4,18.88,P2,207.9,P8
7591,C94,,60.0%,Min,-269.1,P3,-2.003,P5,-3.910,P3,-3.533,P33,-207.9,P8,-2.251,P5,1.638,P68,77.30,P55
7591,C94,,60.0%,Max,200.4,P2,4.712,P2,112.6,P6,-0.07647,P2,-74.72,P55,3.975,P2,112.6,P6,201.7,P8
7591,C94,,60.0%,Min,-269.8,P3,-3.429,P3,38.49,P68,-1.617,P22,-201.7,P8,-2.827,P3,38.52,P68,74.72,P55
7591,C94,,65.0%,Max,200.4,P2,4.712,P2,115.2,P6,-0.07647,P2,-53.91,P2,3.467,P2,115.2,P6,164.6,P8
7591,C94,,65.0%,Min,-269.8,P3,-3.429,P3,40.40,P68,-1.617,P22,-164.6,P8,-2.753,P3,40.43,P68,54.02,P2
7591,C94,,70.0%,Max,200.4,P2,4.712,P2,117.8,P6,-0.07647,P2,-31.62,P2,2.959,P2,117.8,P6,126.6,P8
7591,C94,,70.0%,Min,-269.8,P3,-3.429,P3,42.31,P68,-1.617,P22,-126.6,P8,-2.678,P3,42.33,P68,31.76,P2
7591,C94,,75.0%,Max,200.4,P2,4.712,P2,120.4,P6,-0.07647,P2,-8.685,P2,2.451,P2,120.4,P6,87.79,P8
7591,C94,,75.0%,Min,-269.8,P3,-3.429,P3,44.22,P68,-1.617,P22,-87.79,P8,-2.604,P3,44.24,P68,9.025,P2
7591,C94,,80.0%,Max,200.4,P2,4.712,P2,122.9,P6,-0.07647,P2,14.90,P2,1.943,P2,122.9,P6,53.52,P3
7591,C94,,80.0%,Min,-269.8,P3,-3.429,P3,46.13,P68,-1.617,P22,-53.46,P3,-2.530,P3,46.15,P68,2.954,P77
7591,C94,,80.0%,Max,206.1,P2,8.362,P2,185.8,P6,-0.8662,P2,24.61,P2,5.745,P2,185.8,P6,45.40,P3
7591,C94,,80.0%,Min,-265.1,P3,-6.657,P3,70.98,P68,-3.536,P33,-45.19,P3,-4.318,P3,71.00,P68,0.3595,P71
7591,C94,,85.0%,Max,206.1,P2,8.362,P2,188.3,P6,-0.8662,P2,59.32,P2,5.502,P2,188.3,P6,59.57,P2
7591,C94,,85.0%,Min,-265.1,P3,-6.657,P3,72.89,P68,-3.536,P33,-16.61,P3,-4.652,P3,72.91,P68,3.823,P92
7591,C94,,90.0%,Max,206.1,P2,8.362,P2,190.9,P6,-0.8662,P2,107.6,P6,5.258,P2,190.9,P6,107.6,P6
7591,C94,,90.0%,Min,-265.1,P3,-6.657,P3,74.80,P68,-3.536,P33,12.62,P3,-4.986,P3,74.82,P68,13.57,P3
7591,C94,,95.0%,Max,206.1,P2,8.362,P2,193.5,P6,-0.8662,P2,172.5,P6,5.015,P2,193.5,P6,172.5,P6
7591,C94,,95.0%,Min,-265.1,P3,-6.657,P3,76.71,P68,-3.536,P33,42.49,P3,-5.319,P3,76.73,P68,42.83,P3
7591,C94,7718,100.0%,Max,206.1,P2,8.362,P2,196.1,P6,-0.8662,P2,238.4,P6,4.772,P2,196.1,P6,238.4,P6
7591,C94,7718,100.0%,Min,-265.1,P3,-6.657,P3,78.62,P68,-3.536,P33,73.02,P3,-5.653,P3,78.63,P68,73.23,P3
7592,C94,6033,0.0%,Max,70.29,P2,2.302,P4,-130.3,P46,-0.5795,P2,489.0,P29,1.829,P4,315.5,P29,489.0,P29
7592,C94,6033,0.0%,Min,-64.68,P3,-1.418,P5,-315.5,P29,-2.455,P6,178.3,P68,-1.149,P5,130.3,P46,178.3,P68
7592,C94,,4.2%,Max,70.29,P2,2.302,P4,-128.3,P46,-0.5795,P2,378.3,P29,1.595,P4,312.8,P29,378.3,P29
7592,C94,,4.2%,Min,-64.68,P3,-1.418,P5,-312.8,P29,-2.455,P6,132.6,P68,-1.227,P5,128.3,P46,132.6,P68
7592,C94,,8.3%,Max,70.29,P2,2.302,P4,-126.3,P46,-0.5795,P2,268.4,P29,1.362,P4,310.1,P29,268.4,P29
7592,C94,,8.3%,Min,-64.68,P3,-1.418,P5,-310.1,P29,-2.455,P6,87.62,P68,-1.305,P5,126.3,P46,87.62,P68
7592,C94,,12.5%,Max,70.29,P2,2.302,P4,-124.3,P46,-0.5795,P2,159.6,P29,1.128,P4,307.4,P29,159.6,P29
7592,C94,,12.5%,Min,-64.68,P3,-1.418,P5,-307.4,P29,-2.455,P6,43.33,P68,-1.383,P5,124.3,P46,43.33,P68
7592,C94,,16.7%,Max,70.29,P2,2.302,P4,-122.3,P46,-0.5795,P2,51.67,P29,0.8937,P4,304.7,P29,51.67,P29
7592,C94,,16.7%,Min,-64.68,P3,-1.418,P5,-304.7,P29,-2.455,P6,-0.2482,P68,-1.460,P5,122.3,P46,0.1578,P69
7592,C94,,16.7%,Max,61.69,P2,1.576,P4,-95.06,P58,0.7379,P2,18.89,P2,1.359,P2,231.3,P29,18.94,P2
7592,C94,,16.7%,Min,-64.50,P3,-1.062,P5,-231.3,P29,-0.2524,P3,-17.60,P68,-0.9701,P3,95.06,P58,0.4311,P60
7592,C94,,20.8%,Max,61.69,P2,1.576,P4,-93.07,P58,0.7379,P2,-16.72,P2,1.137,P2,228.6,P29,88.63,P32
7592,C94,,20.8%,Min,-64.50,P3,-1.062,P5,-228.6,P29,-0.2524,P3,-88.63,P32,-0.9290,P3,93.07,P58,16.76,P2
7592,C94,,25.0%,Max,61.69,P2,1.576,P4,-91.08,P58,0.7379,P2,-51.19,P53,0.9657,P4,225.9,P29,168.4,P32
7592,C94,,25.0%,Min,-64.50,P3,-1.062,P5,-225.9,P29,-0.2524,P3,-168.4,P32,-0.9391,P5,91.08,P58,51.19,P53
7592,C94,,29.2%,Max,61.69,P2,1.576,P4,-89.09,P58,0.7379,P2,-83.55,P53,0.7971,P4,223.2,P29,247.2,P32
7592,C94,,29.2%,Min,-64.50,P3,-1.062,P5,-223.2,P29,-0.2524,P3,-247.2,P32,-0.9518,P5,89.09,P58,83.55,P53
7592,C94,,33.3%,Max,61.69,P2,1.576,P4,-87.09,P58,0.7379,P2,-115.2,P53,0.6286,P4,220.5,P29,325.1,P32
7592,C94,,33.3%,Min,-64.50,P3,-1.062,P5,-220.5,P29,-0.2524,P3,-325.1,P32,-0.9645,P5,87.10,P58,115.2,P53
7592,C94,,33.3%,Max,54.61,P2,1.882,P2,-41.67,P68,0.04038,P4,-126.6,P53,1.594,P2,100.9,P29,352.4,P32
7592,C94,,33.3%,Min,-62.92,P3,-1.338,P3,-100.9,P29,-0.4056,P20,-352.4,P32,-1.243,P3,41.68,P68,126.6,P53
7592,C94,,37.5%,Max,54.61,P2,1.882,P2,-39.68,P68,0.04038,P4,-141.9,P53,1.362,P2,98.20,P29,387.1,P32
7592,C94,,37.5%,Min,-62.92,P3,-1.338,P3,-98.20,P29,-0.4056,P20,-387.1,P32,-1.202,P3,39.68,P68,141.9,P53
7592,C94,,41.7%,Max,54.61,P2,1.882,P2,-37.69,P68,0.04038,P4,-156.4,P53,1.130,P2,95.51,P29,420.7,P32
7592,C94,,41.7%,Min,-62.92,P3,-1.338,P3,-95.51,P29,-0.4056,P20,-420.7,P32,-1.162,P3,37.69,P68,156.4,P53
7592,C94,,45.8%,Max,54.61,P2,1.882,P2,-35.70,P68,0.04038,P4,-170.2,P53,0.8976,P2,92.82,P29,453.4,P33
7592,C94,,45.8%,Min,-62.92,P3,-1.338,P3,-92.82,P29,-0.4056,P20,-453.4,P33,-1.122,P3,35.70,P68,170.2,P53
7592,C94,,50.0%,Max,54.61,P2,1.882,P2,-33.71,P68,0.04038,P4,-183.3,P49,0.6655,P2,90.13,P29,485.2,P33
7592,C94,,50.0%,Min,-62.92,P3,-1.338,P3,-90.13,P29,-0.4056,P20,-485.2,P33,-1.081,P3,33.71,P68,183.3,P49
7592,C94,,50.0%,Max,50.44,P2,2.609,P2,2.941,P2,-1.318,P53,-187.1,P49,2.018,P2,5.117,P3,493.4,P33
7592,C94,,50.0%,Min,-59.04,P3,-1.835,P3,-4.777,P3,-4.301,P33,-493.4,P33,-1.528,P3,0.2630,P44,187.1,P49
7592,C94,,54.2%,Max,50.44,P2,2.609,P2,4.933,P2,-1.318,P53,-187.6,P49,1.780,P2,5.581,P2,492.2,P33
7592,C94,,54.2%,Min,-59.04,P3,-1.835,P3,-2.785,P3,-4.301,P33,-492.2,P33,-1.563,P3,0.1043,P75,187.6,P49
7592,C94,,58.3%,Max,50.44,P2,2.609,P2,7.407,P32,-1.318,P53,-187.3,P49,1.542,P2,7.417,P32,490.0,P33
7592,C94,,58.3%,Min,-59.04,P3,-1.835,P3,-0.7935,P3,-4.301,P33,-490.0,P33,-1.599,P3,1.275,P5,187.3,P49
7592,C94,,62.5%,Max,50.44,P2,2.609,P2,10.10,P32,-1.318,P53,-186.4,P49,1.305,P2,10.10,P32,487.0,P33
7592,C94,,62.5%,Min,-59.04,P3,-1.835,P3,1.198,P3,-4.301,P33,-487.0,P33,-1.634,P3,2.191,P3,186.4,P49
7592,C94,,66.7%,Max,50.44,P2,2.609,P2,12.78,P32,-1.318,P53,-184.8,P49,1.067,P2,12.79,P32,482.9,P33
7592,C94,,66.7%,Min,-59.04,P3,-1.835,P3,3.190,P3,-4.301,P33,-482.9,P33,-1.670,P3,3.680,P3,184.8,P49
7592,C94,,66.7%,Max,45.74,P2,3.383,P2,134.6,P32,-1.586,P53,-186.0,P49,2.401,P2,134.6,P32,486.1,P33
7592,C94,,66.7%,Min,-49.21,P3,-2.781,P3,49.80,P53,-5.490,P32,-486.1,P33,-2.007,P3,49.80,P53,186.0,P49
7592,C94,,70.8%,Max,45.74,P2,3.383,P2,137.3,P32,-1.586,P53,-168.1,P49,2.280,P2,137.3,P32,438.2,P33
7592,C94,,70.8%,Min,-49.21,P3,-2.781,P3,51.80,P53,-5.490,P32,-438.2,P33,-2.098,P3,51.80,P53,168.1,P49
7592,C94,,75.0%,Max,45.74,P2,3.383,P2,140.0,P32,-1.586,P53,-149.4,P49,2.159,P2,140.0,P32,389.3,P33
7592,C94,,75.0%,Min,-49.21,P3,-2.781,P3,53.79,P53,-5.490,P32,-389.3,P33,-2.189,P3,53.79,P53,149.4,P49
7592,C94,,79.2%,Max,45.74,P2,3.383,P2,142.7,P32,-1.586,P53,-130.1,P49,2.038,P2,142.7,P32,339.5,P33
7592,C94,,79.2%,Min,-49.21,P3,-2.781,P3,55.78,P53,-5.490,P32,-339.5,P33,-2.280,P3,55.78,P53,130.1,P49
7592,C94,,83.3%,Max,45.74,P2,3.383,P2,145.4,P32,-1.586,P53,-109.7,P48,1.917,P2,145.4,P32,288.7,P33
7592,C94,,83.3%,Min,-49.21,P3,-2.781,P3,57.77,P53,-5.490,P32,-288.7,P33,-2.371,P3,57.77,P53,109.7,P48
7592,C94,,83.3%,Max,33.32,P2,4.753,P2,189.3,P33,7.927,P29,-100.7,P48,2.858,P2,189.3,P33,266.3,P33
7592,C94,,83.3%,Min,-34.29,P3,-4.710,P3,74.86,P48,2.743,P69,-266.3,P33,-2.836,P3,74.87,P48,100.7,P48
7592,C94,,87.5%,Max,33.32,P2,4.753,P2,191.9,P33,7.927,P29,-74.00,P48,3.097,P2,191.9,P33,199.1,P33
7592,C94,,87.5%,Min,-34.29,P3,-4.710,P3,76.85,P48,2.743,P69,-199.1,P33,-3.091,P3,76.86,P48,74.00,P48
7592,C94,,91.7%,Max,33.32,P2,4.753,P2,194.6,P33,7.927,P29,-46.56,P48,3.336,P2,194.6,P33,130.9,P33
7592,C94,,91.7%,Min,-34.29,P3,-4.710,P3,78.84,P48,2.743,P69,-130.9,P33,-3.345,P3,78.85,P48,46.56,P48
7592,C94,,95.8%,Max,33.32,P2,4.753,P2,197.3,P33,7.927,P29,-18.32,P2,3.575,P2,197.3,P33,61.80,P33
7592,C94,,95.8%,Min,-34.29,P3,-4.710,P3,80.83,P48,2.743,P69,-61.80,P33,-3.599,P3,80.84,P48,18.43,P48
7592,C94,5236,100.0%,Max,33.32,P2,4.753,P2,200.0,P33,7.927,P29,13.05,P12,3.814,P2,200.0,P33,13.32,P2
7592,C94,5236,100.0%,Min,-34.29,P3,-4.710,P3,82.82,P48,2.743,P69,-0.6706,P3,-3.854,P3,82.83,P48,1.329,P69
7593,C94,5138,0.0%,Max,166.3,P2,0.5872,P4,-27.99,P2,-7.488,P69,152.1,P2,0.5771,P4,107.1,P31,152.1,P2
7593,C94,5138,0.0%,Min,-164.4,P3,-2.269,P5,-107.1,P31,-22.63,P25,-44.51,P3,-1.771,P5,27.99,P2,4.276,P93
7593,C94,,5.0%,Max,166.3,P2,0.5872,P4,-25.87,P2,-7.488,P69,126.2,P2,0.8637,P4,104.3,P31,126.2,P2
7593,C94,,5.0%,Min,-164.4,P3,-2.269,P5,-104.3,P31,-22.63,P25,-55.97,P3,-1.428,P5,25.88,P2,1.240,P85
7593,C94,,10.0%,Max,166.3,P2,0.5872,P4,-23.76,P2,-7.488,P69,101.1,P2,1.150,P4,101.4,P31,101.1,P2
7593,C94,,10.0%,Min,-164.4,P3,-2.269,P5,-101.4,P31,-22.63,P25,-66.64,P3,-1.085,P5,23.76,P2,1.616,P86
7593,C94,,15.0%,Max,166.3,P2,0.5872,P4,-21.65,P2,-7.488,P69,76.83,P2,1.437,P4,98.58,P31,76.84,P2
7593,C94,,15.0%,Min,-164.4,P3,-2.269,P5,-98.57,P31,-22.63,P25,-76.52,P3,-0.7418,P5,21.65,P2,1.619,P61
7593,C94,,20.0%,Max,166.3,P2,0.5872,P4,-19.53,P2,-7.488,P69,53.32,P2,1.723,P4,95.73,P31,85.61,P3
7593,C94,,20.0%,Min,-164.4,P3,-2.269,P5,-95.72,P31,-22.63,P25,-85.61,P3,-0.3989,P5,19.53,P2,0.6284,P43
7593,C94,,20.0%,Max,149.8,P2,0.3600,P4,-3.184,P2,-5.117,P69,49.04,P2,0.3002,P4,61.96,P19,86.38,P3
7593,C94,,20.0%,Min,-149.0,P3,-0.4544,P5,-61.96,P19,-15.86,P25,-86.38,P3,-0.3087,P5,3.201,P2,0.8366,P80
7593,C94,,25.0%,Max,149.8,P2,0.3600,P4,-1.070,P2,-5.117,P69,34.47,P2,0.3739,P2,59.11,P19,90.79,P3
7593,C94,,25.0%,Min,-149.0,P3,-0.4544,P5,-59.11,P19,-15.86,P25,-90.79,P3,-0.3472,P3,1.118,P2,0.5633,P35
7593,C94,,30.0%,Max,149.8,P2,0.3600,P4,1.045,P2,-5.117,P69,20.69,P2,0.4732,P2,56.25,P19,104.4,P20
7593,C94,,30.0%,Min,-149.0,P3,-0.4544,P5,-56.25,P19,-15.86,P25,-104.4,P20,-0.4111,P3,1.094,P2,0.9362,P78
7593,C94,,35.0%,Max,149.8,P2,0.3600,P4,3.159,P2,-5.117,P69,11.32,P73,0.5724,P2,53.40,P19,123.9,P20
7593,C94,,35.0%,Min,-149.0,P3,-0.4544,P5,-53.40,P19,-15.86,P25,-123.9,P20,-0.4750,P3,0.3739,P4,0.2651,P52
7593,C94,,40.0%,Max,149.8,P2,0.3600,P4,5.273,P2,-5.117,P69,5.636,P49,0.6716,P2,50.54,P19,142.3,P20
7593,C94,,40.0%,Min,-149.0,P3,-0.4544,P5,-50.54,P19,-15.86,P25,-142.3,P20,-0.5389,P3,2.045,P4,0.4693,P75
7593,C94,,40.0%,Max,122.3,P2,0.8253,P73,31.38,P2,1.493,P21,6.114,P49,0.5389,P2,31.39,P2,142.8,P21
7593,C94,,40.0%,Min,-127.9,P3,-0.7367,P69,-13.52,P3,-0.1366,P5,-142.8,P21,-0.3850,P69,0.6347,P19,0.5612,P75
7593,C94,,45.0%,Max,122.3,P2,0.8253,P73,33.49,P2,1.493,P21,9.796,P49,0.5526,P2,33.50,P2,141.7,P21
7593,C94,,45.0%,Min,-127.9,P3,-0.7367,P69,-11.40,P3,-0.1366,P5,-141.7,P21,-0.4466,P3,0.6166,P58,0.2389,P51
7593,C94,,50.0%,Max,122.3,P2,0.8253,P73,35.61,P2,1.493,P21,14.27,P49,0.5663,P2,35.61,P2,139.5,P21
7593,C94,,50.0%,Min,-127.9,P3,-0.7367,P69,-9.288,P3,-0.1366,P5,-139.5,P21,-0.5271,P3,0.1543,P67,1.127,P37
7593,C94,,55.0%,Max,122.3,P2,0.8253,P73,37.72,P2,1.493,P21,19.53,P49,0.5800,P2,37.73,P2,136.2,P21
7593,C94,,55.0%,Min,-127.9,P3,-0.7367,P69,-7.173,P3,-0.1366,P5,-136.2,P21,-0.6077,P3,0.1727,P56,0.6272,P4
7593,C94,,60.0%,Max,122.3,P2,0.8253,P73,39.84,P2,1.493,P21,25.59,P49,0.7482,P92,39.84,P2,131.9,P21
7593,C94,,60.0%,Min,-127.9,P3,-0.7367,P69,-5.059,P3,-0.1366,P5,-131.9,P21,-0.7726,P75,0.7822,P54,0.7441,P72
7593,C94,,60.0%,Max,83.86,P2,2.976,P73,77.01,P8,13.47,P24,28.71,P49,1.705,P73,77.01,P8,127.5,P21
7593,C94,,60.0%,Min,-99.55,P3,-2.651,P69,17.60,P55,4.463,P87,-127.5,P21,-1.477,P69,17.69,P55,1.074,P65
7593,C94,,65.0%,Max,83.86,P2,2.976,P73,79.86,P8,13.47,P24,42.42,P49,1.331,P2,79.86,P8,106.2,P21
7593,C94,,65.0%,Min,-99.55,P3,-2.651,P69,19.71,P55,4.463,P87,-106.2,P21,-1.054,P3,19.79,P55,0.2366,P63
7593,C94,,70.0%,Max,83.86,P2,2.976,P73,82.71,P8,13.47,P24,61.51,P2,1.327,P2,82.72,P8,83.83,P21
7593,C94,,70.0%,Min,-99.55,P3,-2.651,P69,21.83,P55,4.463,P87,-83.83,P21,-1.317,P3,21.90,P55,0.2953,P83
7593,C94,,75.0%,Max,83.86,P2,2.976,P73,85.57,P8,13.47,P24,83.38,P2,1.551,P92,85.57,P8,83.39,P2
7593,C94,,75.0%,Min,-99.55,P3,-2.651,P69,23.94,P55,4.463,P87,-72.52,P69,-1.645,P75,24.01,P55,0.4356,P64
7593,C94,,80.0%,Max,83.86,P2,2.976,P73,88.42,P8,13.47,P24,106.0,P2,2.531,P92,88.42,P8,106.1,P2
7593,C94,,80.0%,Min,-99.55,P3,-2.651,P69,26.06,P55,4.463,P87,-60.64,P69,-2.752,P73,26.12,P55,0.5747,P33
7593,C94,,80.0%,Max,55.50,P92,39.67,P73,135.2,P8,28.60,P24,115.0,P2,19.24,P73,136.3,P25,115.7,P2
7593,C94,,80.0%,Min,-101.3,P76,-35.47,P68,43.17,P55,10.23,P87,-55.58,P69,-16.98,P69,45.47,P57,2.647,P58
7593,C94,,85.0%,Max,55.50,P92,39.67,P73,138.0,P8,28.60,P24,153.1,P13,14.08,P2,139.1,P25,153.2,P13
7593,C94,,85.0%,Min,-101.3,P76,-35.47,P68,45.28,P55,10.23,P87,-36.60,P69,-12.35,P3,47.56,P57,3.191,P43
7593,C94,,90.0%,Max,55.50,P92,39.67,P73,140.9,P8,28.60,P24,201.3,P13,15.11,P2,141.9,P25,201.4,P13
7593,C94,,90.0%,Min,-101.3,P76,-35.47,P68,47.40,P55,10.23,P87,-16.83,P69,-17.08,P3,49.66,P57,1.769,P57
7593,C94,,95.0%,Max,55.50,P92,39.67,P73,143.7,P8,28.60,P24,250.5,P13,22.86,P68,144.8,P25,251.1,P13
7593,C94,,95.0%,Min,-101.3,P76,-35.47,P68,49.51,P55,10.23,P87,3.727,P69,-25.31,P73,51.75,P57,17.20,P45
7593,C94,4819,100.0%,Max,55.50,P92,39.67,P73,146.6,P8,28.60,P24,301.8,P25,36.13,P68,147.6,P25,302.4,P25
7593,C94,4819,100.0%,Min,-101.3,P76,-35.47,P68,51.62,P55,10.23,P87,25.08,P69,-40.16,P73,53.85,P57,37.82,P45
7594,C94,4788,0.0%,Max,248.0,P2,5.315,P69,37.48,P76,-7.447,P79,588.3,P92,6.089,P69,141.7,P9,588.3,P92
7594,C94,4788,0.0%,Min,-277.9,P3,-5.982,P3,-141.7,P9,-21.51,P8,-451.5,P76,-6.285,P3,3.760,P55,6.363,P19
7594,C94,,5.0%,Max,248.0,P2,5.315,P69,39.70,P76,-7.447,P79,535.8,P92,4.775,P2,138.7,P9,535.9,P92
7594,C94,,5.0%,Min,-277.9,P3,-5.982,P3,-138.7,P9,-21.51,P8,-436.3,P76,-5.357,P3,4.526,P54,5.622,P42
7594,C94,,10.0%,Max,248.0,P2,5.315,P69,41.93,P76,-7.447,P79,484.3,P92,4.311,P2,135.7,P9,484.3,P92
7594,C94,,10.0%,Min,-277.9,P3,-5.982,P3,-135.7,P9,-21.51,P8,-420.2,P76,-4.430,P3,2.930,P54,0.3030,P64
7594,C94,,15.0%,Max,248.0,P2,5.315,P69,44.15,P76,-7.447,P79,433.6,P92,3.846,P2,132.7,P9,433.6,P92
7594,C94,,15.0%,Min,-277.9,P3,-5.982,P3,-132.7,P9,-21.51,P8,-403.3,P76,-3.502,P3,2.567,P54,2.847,P61
7594,C94,,20.0%,Max,248.0,P2,5.315,P69,46.38,P76,-7.447,P79,383.8,P92,3.381,P2,129.7,P9,385.4,P76
7594,C94,,20.0%,Min,-277.9,P3,-5.982,P3,-129.7,P9,-21.51,P8,-385.4,P76,-2.575,P3,3.035,P41,1.249,P63
7594,C94,,20.0%,Max,232.6,P2,2.000,P69,53.16,P76,-5.754,P67,371.2,P92,1.913,P69,116.1,P92,381.6,P3
7594,C94,,20.0%,Min,-234.7,P3,-2.292,P3,-116.1,P92,-15.78,P25,-381.6,P3,-2.111,P3,1.138,P35,1.548,P59
7594,C94,,25.0%,Max,232.6,P2,2.000,P69,55.38,P76,-5.754,P67,325.9,P92,1.567,P2,113.9,P92,362.7,P3
7594,C94,,25.0%,Min,-234.7,P3,-2.292,P3,-113.9,P92,-15.78,P25,-362.7,P3,-1.847,P3,2.612,P35,11.92,P59
7594,C94,,30.0%,Max,232.6,P2,2.000,P69,57.61,P76,-5.754,P67,281.5,P92,1.602,P2,111.6,P92,342.9,P3
7594,C94,,30.0%,Min,-234.7,P3,-2.292,P3,-111.6,P92,-15.78,P25,-342.9,P3,-1.582,P3,4.717,P35,0.6220,P57
7594,C94,,35.0%,Max,232.6,P2,2.000,P69,59.83,P76,-5.754,P67,238.0,P92,1.637,P2,109.4,P92,322.3,P3
7594,C94,,35.0%,Min,-234.7,P3,-2.292,P3,-109.4,P92,-15.78,P25,-322.3,P3,-1.318,P3,5.592,P16,8.069,P32
7594,C94,,40.0%,Max,232.6,P2,2.000,P69,62.06,P76,-5.754,P67,195.4,P92,1.671,P2,107.2,P92,300.8,P3
7594,C94,,40.0%,Min,-234.7,P3,-2.292,P3,-107.2,P92,-15.78,P25,-300.8,P3,-1.237,P69,2.853,P16,2.233,P67
7594,C94,,40.0%,Max,222.4,P2,0.9336,P69,78.98,P76,1.034,P93,185.0,P92,0.8124,P92,88.10,P92,293.5,P3
7594,C94,,40.0%,Min,-215.1,P3,-1.032,P3,-88.09,P92,-0.9588,P3,-293.5,P3,-0.8804,P3,0.3317,P60,1.296,P67
7594,C94,,45.0%,Max,222.4,P2,0.9336,P69,81.20,P76,1.034,P93,150.7,P92,0.7902,P2,85.87,P92,262.6,P3
7594,C94,,45.0%,Min,-215.1,P3,-1.032,P3,-85.87,P92,-0.9588,P3,-262.6,P3,-0.8303,P3,0.9450,P61,0.4408,P20
7594,C94,,50.0%,Max,222.4,P2,0.9336,P69,83.43,P76,1.034,P93,117.4,P92,0.8647,P2,83.65,P92,230.9,P3
7594,C94,,50.0%,Min,-215.1,P3,-1.032,P3,-83.64,P92,-0.9588,P3,-230.9,P3,-0.7802,P3,1.165,P62,0.5385,P66
7594,C94,,55.0%,Max,222.4,P2,0.9336,P69,85.65,P76,1.034,P93,84.85,P92,0.9391,P2,85.66,P76,199.3,P7
7594,C94,,55.0%,Min,-215.1,P3,-1.032,P3,-81.42,P92,-0.9588,P3,-199.3,P7,-0.7301,P3,0.2566,P58,3.065,P88
7594,C94,,60.0%,Max,222.4,P2,0.9336,P69,87.88,P76,1.034,P93,53.22,P92,1.014,P2,87.88,P76,173.0,P7
7594,C94,,60.0%,Min,-215.1,P3,-1.032,P3,-79.19,P92,-0.9588,P3,-173.0,P7,-0.6800,P3,0.5779,P59,3.092,P45
7594,C94,,60.0%,Max,205.8,P2,0.5098,P4,110.2,P2,13.67,P8,45.42,P92,0.6089,P4,110.2,P2,163.6,P7
7594,C94,,60.0%,Min,-202.0,P3,-0.3582,P5,-60.12,P92,3.643,P77,-163.6,P7,-0.4582,P5,3.038,P67,0.3604,P45
7594,C94,,65.0%,Max,205.8,P2,0.5098,P4,112.6,P7,13.67,P8,35.95,P2,0.5418,P4,112.6,P7,127.6,P3
7594,C94,,65.0%,Min,-202.0,P3,-0.3582,P5,-57.89,P92,3.643,P77,-127.6,P3,-0.4508,P5,3.073,P9,3.896,P90
7594,C94,,70.0%,Max,205.8,P2,0.5098,P4,115.6,P7,13.67,P8,34.31,P2,0.5238,P2,115.6,P7,100.2,P3
7594,C94,,70.0%,Min,-202.0,P3,-0.3582,P5,-55.67,P92,3.643,P77,-100.2,P3,-0.4925,P3,0.3362,P9,0.2222,P92
7594,C94,,75.0%,Max,205.8,P2,0.5098,P4,118.6,P7,13.67,P8,33.55,P2,0.5072,P2,118.6,P7,71.83,P3
7594,C94,,75.0%,Min,-202.0,P3,-0.3582,P5,-53.44,P92,3.643,P77,-71.83,P3,-0.5357,P3,0.9879,P66,11.76,P76
7594,C94,,80.0%,Max,205.8,P2,0.5098,P4,121.6,P7,13.67,P8,33.66,P2,0.4907,P2,121.6,P7,42.61,P3
7594,C94,,80.0%,Min,-202.0,P3,-0.3582,P5,-51.22,P92,3.643,P77,-42.60,P3,-0.5788,P3,1.056,P88,0.07908,P25
7594,C94,,80.0%,Max,176.4,P2,2.861,P12,151.9,P7,21.11,P8,45.92,P2,1.947,P12,152.0,P7,47.80,P92
7594,C94,,80.0%,Min,-190.1,P3,0.2103,P69,-38.23,P92,6.389,P77,-47.80,P92,0.04067,P5,1.787,P44,0.8466,P43
7594,C94,,85.0%,Max,176.4,P2,2.861,P12,155.0,P7,21.11,P8,99.10,P2,1.307,P4,155.0,P7,99.11,P2
7594,C94,,85.0%,Min,-190.1,P3,0.2103,P69,-36.01,P92,6.389,P77,-62.42,P92,-0.4976,P5,1.332,P91,2.536,P59
7594,C94,,90.0%,Max,176.4,P2,2.861,P12,158.0,P7,21.11,P8,154.4,P7,0.7708,P4,158.0,P7,154.4,P7
7594,C94,,90.0%,Min,-190.1,P3,0.2103,P69,-33.78,P92,6.389,P77,-76.16,P92,-1.036,P5,1.193,P91,1.132,P67
7594,C94,,95.0%,Max,176.4,P2,2.861,P12,161.0,P7,21.11,P8,217.2,P7,0.2347,P4,161.0,P7,217.2,P7
7594,C94,,95.0%,Min,-190.1,P3,0.2103,P69,-31.56,P92,6.389,P77,-89.03,P92,-1.574,P5,2.100,P90,1.580,P88
7594,C94,5138,100.0%,Max,176.4,P2,2.861,P12,164.0,P7,21.11,P8,281.2,P7,-0.006590,P69,164.0,P7,281.2,P7
7594,C94,5138,100.0%,Min,-190.1,P3,0.2103,P69,-29.33,P92,6.389,P77,-101.0,P92,-2.560,P12,0.6992,P90,1.891,P85
7595,C94,5990,0.0%,Max,62.04,P4,3.513,P4,-114.1,P48,3.455,P33,463.1,P33,2.877,P4,289.8,P33,463.1,P33
7595,C94,5990,0.0%,Min,-70.90,P5,-1.240,P5,-289.8,P33,-0.3234,P3,162.2,P48,-0.9242,P5,114.1,P48,162.2,P48
7595,C94,,4.2%,Max,62.04,P4,3.513,P4,-111.9,P48,3.455,P33,349.7,P33,2.420,P4,286.8,P33,349.7,P33
7595,C94,,4.2%,Min,-70.90,P5,-1.240,P5,-286.8,P33,-0.3234,P3,117.8,P48,-1.362,P5,111.9,P48,117.8,P48
7595,C94,,8.3%,Max,62.04,P4,3.513,P4,-109.7,P48,3.455,P33,237.5,P33,1.963,P4,283.8,P33,237.5,P33
7595,C94,,8.3%,Min,-70.90,P5,-1.240,P5,-283.8,P33,-0.3234,P3,74.21,P48,-1.799,P5,109.7,P48,74.21,P48
7595,C94,,12.5%,Max,62.04,P4,3.513,P4,-107.5,P48,3.455,P33,126.4,P33,1.507,P4,280.8,P33,126.4,P33
7595,C94,,12.5%,Min,-70.90,P5,-1.240,P5,-280.8,P33,-0.3234,P3,29.29,P3,-2.237,P5,107.5,P48,29.36,P3
7595,C94,,16.7%,Max,62.04,P4,3.513,P4,-105.2,P48,3.455,P33,29.91,P2,1.050,P4,277.8,P33,29.92,P2
7595,C94,,16.7%,Min,-70.90,P5,-1.240,P5,-277.8,P33,-0.3234,P3,-21.08,P3,-2.674,P5,105.2,P48,0.6494,P60
7595,C94,,16.7%,Max,48.35,P4,1.715,P4,-72.30,P48,1.797,P2,5.180,P2,1.401,P4,191.2,P33,42.62,P3
7595,C94,,16.7%,Min,-62.19,P5,-0.3850,P5,-191.2,P33,-0.7801,P3,-42.62,P3,-0.3427,P5,72.31,P48,0.4648,P69
7595,C94,,20.8%,Max,48.35,P4,1.715,P4,-70.08,P48,1.797,P2,-32.64,P2,1.140,P4,188.2,P33,114.0,P6
7595,C94,,20.8%,Min,-62.19,P5,-0.3850,P5,-188.2,P33,-0.7801,P3,-114.0,P6,-0.6042,P5,70.08,P48,32.65,P2
7595,C94,,25.0%,Max,48.35,P4,1.715,P4,-67.86,P48,1.797,P2,-66.28,P69,0.8782,P4,185.2,P33,185.4,P6
7595,C94,,25.0%,Min,-62.19,P5,-0.3850,P5,-185.2,P33,-0.7801,P3,-185.4,P6,-0.8658,P5,67.86,P48,66.28,P69
7595,C94,,29.2%,Max,48.35,P4,1.715,P4,-65.64,P48,1.797,P2,-97.90,P69,0.6167,P4,182.2,P33,255.7,P6
7595,C94,,29.2%,Min,-62.19,P5,-0.3850,P5,-182.2,P33,-0.7801,P3,-255.7,P6,-1.127,P5,65.64,P48,97.90,P69
7595,C94,,33.3%,Max,48.35,P4,1.715,P4,-63.42,P48,1.797,P2,-128.6,P92,0.3553,P4,179.2,P33,324.8,P6
7595,C94,,33.3%,Min,-62.19,P5,-0.3850,P5,-179.2,P33,-0.7801,P3,-324.8,P6,-1.389,P5,63.42,P48,128.6,P92
7595,C94,,33.3%,Max,33.54,P4,1.471,P2,-17.91,P2,-0.4905,P4,-138.9,P92,1.415,P2,61.18,P33,346.3,P6
7595,C94,,33.3%,Min,-57.06,P5,-0.6130,P3,-61.18,P33,-2.145,P31,-346.3,P6,-0.8188,P3,17.97,P2,138.9,P92
7595,C94,,37.5%,Max,33.54,P4,1.471,P2,-15.69,P2,-0.4905,P4,-148.6,P58,1.118,P2,58.18,P33,367.9,P33
7595,C94,,37.5%,Min,-57.06,P5,-0.6130,P3,-58.18,P33,-2.145,P31,-367.9,P33,-0.8593,P3,15.76,P2,148.6,P58
7595,C94,,41.7%,Max,33.54,P4,1.471,P2,-13.47,P2,-0.4905,P4,-155.1,P48,0.8208,P2,55.18,P33,390.2,P33
7595,C94,,41.7%,Min,-57.06,P5,-0.6130,P3,-55.18,P33,-2.145,P31,-390.2,P33,-0.8998,P3,13.55,P2,155.1,P48
7595,C94,,45.8%,Max,33.54,P4,1.471,P2,-11.25,P2,-0.4905,P4,-160.2,P48,0.5237,P2,52.18,P33,411.4,P33
7595,C94,,45.8%,Min,-57.06,P5,-0.6130,P3,-52.18,P33,-2.145,P31,-411.4,P33,-0.9403,P3,11.34,P2,160.2,P48
7595,C94,,50.0%,Max,33.54,P4,1.471,P2,-9.027,P2,-0.4905,P4,-164.4,P48,0.2265,P2,49.18,P33,431.3,P33
7595,C94,,50.0%,Min,-57.06,P5,-0.6130,P3,-49.18,P33,-2.145,P31,-431.3,P33,-0.9808,P3,9.146,P2,164.4,P48
7595,C94,,50.0%,Max,18.68,P4,1.828,P2,47.01,P24,-0.7675,P2,-163.2,P48,1.643,P2,47.01,P24,433.4,P33
7595,C94,,50.0%,Min,-54.52,P5,-1.376,P3,9.334,P69,-3.974,P33,-433.4,P33,-1.415,P3,9.339,P69,163.2,P48
7595,C94,,54.2%,Max,18.68,P4,1.828,P2,50.01,P24,-0.7675,P2,-152.9,P48,1.425,P2,50.01,P24,416.9,P33
7595,C94,,54.2%,Min,-54.52,P5,-1.376,P3,11.56,P69,-3.974,P33,-416.9,P33,-1.374,P3,11.56,P69,152.9,P48
7595,C94,,58.3%,Max,18.68,P4,1.828,P2,53.01,P24,-0.7675,P2,-141.8,P48,1.207,P2,53.01,P24,399.2,P33
7595,C94,,58.3%,Min,-54.52,P5,-1.376,P3,13.78,P69,-3.974,P33,-399.2,P33,-1.334,P3,13.78,P69,141.8,P48
7595,C94,,62.5%,Max,18.68,P4,1.828,P2,56.01,P24,-0.7675,P2,-129.8,P48,0.9884,P2,56.01,P24,380.4,P33
7595,C94,,62.5%,Min,-54.52,P5,-1.376,P3,16.00,P69,-3.974,P33,-380.4,P33,-1.294,P3,16.00,P69,129.8,P48
7595,C94,,66.7%,Max,18.68,P4,1.828,P2,59.01,P24,-0.7675,P2,-116.9,P48,0.7702,P2,59.01,P24,360.4,P33
7595,C94,,66.7%,Min,-54.52,P5,-1.376,P3,18.22,P69,-3.974,P33,-360.4,P33,-1.253,P3,18.22,P69,116.9,P48
7595,C94,,66.7%,Max,0.2942,P4,2.522,P2,183.8,P24,-0.1068,P2,-104.7,P48,2.034,P2,183.8,P24,336.2,P33
7595,C94,,66.7%,Min,-59.84,P12,-2.434,P3,65.17,P69,-5.058,P33,-336.2,P33,-2.119,P3,65.17,P69,104.7,P48
7595,C94,,70.8%,Max,0.2942,P4,2.522,P2,186.8,P24,-0.1068,P2,-72.11,P48,1.955,P2,186.8,P24,266.0,P33
7595,C94,,70.8%,Min,-59.84,P12,-2.434,P3,67.39,P69,-5.058,P33,-266.0,P33,-2.074,P3,67.40,P69,72.11,P48
7595,C94,,75.0%,Max,0.2942,P4,2.522,P2,189.8,P24,-0.1068,P2,-38.30,P2,1.875,P2,189.8,P24,194.7,P33
7595,C94,,75.0%,Min,-59.84,P12,-2.434,P3,69.62,P69,-5.058,P33,-194.7,P33,-2.030,P3,69.62,P69,38.34,P2
7595,C94,,79.2%,Max,0.2942,P4,2.522,P2,192.8,P24,-0.1068,P2,2.381,P2,1.795,P2,192.8,P24,122.2,P33
7595,C94,,79.2%,Min,-59.84,P12,-2.434,P3,71.84,P69,-5.058,P33,-122.2,P33,-1.985,P3,71.84,P69,2.982,P2
7595,C94,,83.3%,Max,0.2942,P4,2.522,P2,195.8,P24,-0.1068,P2,43.93,P2,1.716,P2,195.8,P24,63.06,P3
7595,C94,,83.3%,Min,-59.84,P12,-2.434,P3,74.06,P69,-5.058,P33,-63.03,P3,-1.940,P3,74.06,P69,0.3454,P12
7595,C94,,83.3%,Max,-21.29,P69,4.869,P2,289.6,P25,3.184,P2,70.06,P2,3.678,P2,289.6,P25,70.16,P2
7595,C94,,83.3%,Min,-76.88,P24,-4.329,P3,109.1,P69,-1.378,P3,-41.81,P3,-3.457,P3,109.1,P69,0.6693,P87
7595,C94,,87.5%,Max,-21.29,P69,4.869,P2,292.6,P25,3.184,P2,146.4,P12,3.601,P2,292.6,P25,146.4,P12
7595,C94,,87.5%,Min,-76.88,P24,-4.329,P3,111.3,P69,-1.378,P3,10.90,P3,-3.593,P3,111.3,P69,11.48,P3
7595,C94,,91.7%,Max,-21.29,P69,4.869,P2,295.6,P25,3.184,P2,261.3,P24,3.524,P2,295.6,P25,261.3,P24
7595,C94,,91.7%,Min,-76.88,P24,-4.329,P3,113.5,P69,-1.378,P3,60.05,P69,-3.729,P3,113.5,P69,60.05,P69
7595,C94,,95.8%,Max,-21.29,P69,4.869,P2,298.6,P25,3.184,P2,378.0,P24,3.448,P2,298.6,P25,378.0,P24
7595,C94,,95.8%,Min,-76.88,P24,-4.329,P3,115.7,P69,-1.378,P3,105.1,P69,-3.865,P3,115.7,P69,105.1,P69
7595,C94,5018,100.0%,Max,-21.29,P69,4.869,P2,301.6,P25,3.184,P2,495.9,P24,3.371,P2,301.6,P25,495.9,P24
7595,C94,5018,100.0%,Min,-76.88,P24,-4.329,P3,117.9,P69,-1.378,P3,151.1,P69,-4.000,P3,118.0,P69,151.1,P69
7596,C94,5989,0.0%,Max,99.53,P4,5.413,P4,-63.88,P77,5.730,P33,284.6,P8,4.870,P4,163.2,P8,284.6,P8
7596,C94,5989,0.0%,Min,-68.04,P5,-2.484,P69,-163.1,P8,1.985,P61,90.75,P77,-2.404,P69,63.97,P77,90.81,P77
7596,C94,,6.3%,Max,99.53,P4,5.413,P4,-61.70,P77,5.730,P33,222.1,P8,4.010,P4,160.2,P8,222.1,P8
7596,C94,,6.3%,Min,-68.04,P5,-2.484,P69,-160.2,P8,1.985,P61,66.51,P77,-2.387,P5,61.79,P77,66.53,P77
7596,C94,,12.5%,Max,99.53,P4,5.413,P4,-59.52,P77,5.730,P33,160.8,P8,3.151,P4,157.3,P8,160.8,P8
7596,C94,,12.5%,Min,-68.04,P5,-2.484,P69,-157.3,P8,1.985,P61,43.10,P77,-2.774,P5,59.61,P77,43.10,P77
7596,C94,,18.8%,Max,99.53,P4,5.413,P4,-57.33,P77,5.730,P33,100.7,P8,2.291,P4,154.3,P8,100.7,P8
7596,C94,,18.8%,Min,-68.04,P5,-2.484,P69,-154.3,P8,1.985,P61,20.05,P3,-3.162,P5,57.43,P77,20.29,P3
7596,C94,,25.0%,Max,99.53,P4,5.413,P4,-55.15,P77,5.730,P33,43.48,P9,1.434,P69,151.4,P8,43.50,P9
7596,C94,,25.0%,Min,-68.04,P5,-2.484,P69,-151.4,P8,1.985,P61,-5.187,P3,-3.549,P5,55.26,P77,1.574,P74
7596,C94,,25.0%,Max,92.08,P4,3.468,P4,-18.72,P2,1.057,P2,30.27,P2,2.981,P4,57.50,P8,30.39,P2
7596,C94,,25.0%,Min,-71.08,P5,-1.961,P69,-57.48,P8,-0.6001,P3,-13.98,P3,-1.722,P69,18.98,P2,1.093,P54
7596,C94,,31.3%,Max,92.08,P4,3.468,P4,-16.54,P2,1.057,P2,18.38,P2,2.479,P4,54.55,P8,24.15,P3
7596,C94,,31.3%,Min,-71.08,P5,-1.961,P69,-54.53,P8,-0.6001,P3,-24.11,P3,-1.572,P5,16.84,P2,0.7343,P8
7596,C94,,37.5%,Max,92.08,P4,3.468,P4,-14.36,P2,1.057,P2,7.327,P2,1.977,P4,51.61,P8,33.44,P3
7596,C94,,37.5%,Min,-71.08,P5,-1.961,P69,-51.59,P8,-0.6001,P3,-33.40,P3,-1.853,P5,14.70,P2,0.2690,P92
7596,C94,,43.8%,Max,92.08,P4,3.468,P4,-12.18,P2,1.057,P2,-2.880,P2,1.474,P4,48.66,P8,47.42,P6
7596,C94,,43.8%,Min,-71.08,P5,-1.961,P69,-48.64,P8,-0.6001,P3,-47.42,P6,-2.135,P5,12.58,P2,3.146,P2
7596,C94,,50.0%,Max,92.08,P4,3.468,P4,-9.996,P2,1.057,P2,-12.24,P2,1.308,P69,45.72,P8,63.82,P22
7596,C94,,50.0%,Min,-71.08,P5,-1.961,P69,-45.70,P8,-0.6001,P3,-63.80,P22,-2.417,P5,10.48,P2,12.27,P2
7596,C94,,50.0%,Max,87.00,P4,3.378,P4,78.62,P6,-0.1679,P2,-12.29,P2,2.638,P4,78.64,P6,63.03,P22
7596,C94,,50.0%,Min,-71.44,P5,-1.955,P69,21.03,P93,-1.768,P33,-63.02,P22,-1.498,P69,21.05,P92,12.54,P2
7596,C94,,56.2%,Max,87.00,P4,3.378,P4,81.57,P6,-0.1679,P2,1.526,P2,2.292,P4,81.58,P6,34.54,P3
7596,C94,,56.2%,Min,-71.44,P5,-1.955,P69,23.21,P93,-1.768,P33,-34.51,P3,-1.647,P5,23.23,P92,2.591,P2
7596,C94,,62.5%,Max,87.00,P4,3.378,P4,84.51,P6,-0.1679,P2,16.19,P2,1.945,P4,84.53,P6,19.24,P3
7596,C94,,62.5%,Min,-71.44,P5,-1.955,P69,25.39,P93,-1.768,P33,-19.16,P3,-1.969,P5,25.41,P92,0.03893,P17
7596,C94,,68.7%,Max,87.00,P4,3.378,P4,87.46,P6,-0.1679,P2,33.96,P6,1.599,P4,87.47,P6,33.96,P6
7596,C94,,68.7%,Min,-71.44,P5,-1.955,P69,27.57,P93,-1.768,P33,-2.968,P3,-2.292,P5,27.59,P92,2.299,P5
7596,C94,,75.0%,Max,87.00,P4,3.378,P4,90.40,P6,-0.1679,P2,68.30,P6,1.522,P69,90.42,P6,68.31,P6
7596,C94,,75.0%,Min,-71.44,P5,-1.955,P69,29.76,P93,-1.768,P33,14.07,P3,-2.614,P5,29.77,P92,14.26,P3
7596,C94,,75.0%,Max,83.25,P4,5.091,P4,175.4,P6,-0.6719,P2,92.35,P6,3.707,P4,175.4,P6,92.36,P6
7596,C94,,75.0%,Min,-67.13,P5,-2.938,P5,61.00,P69,-3.156,P33,25.25,P3,-2.198,P5,61.05,P93,25.34,P3
7596,C94,,81.2%,Max,83.25,P4,5.091,P4,178.4,P6,-0.6719,P2,160.7,P6,3.371,P4,178.4,P6,160.7,P6
7596,C94,,81.2%,Min,-67.13,P5,-2.938,P5,63.19,P69,-3.156,P33,49.41,P68,-2.694,P5,63.23,P93,49.41,P68
7596,C94,,87.5%,Max,83.25,P4,5.091,P4,181.3,P6,-0.6719,P2,230.1,P6,3.036,P4,181.3,P6,230.1,P6
7596,C94,,87.5%,Min,-67.13,P5,-2.938,P5,65.37,P69,-3.156,P33,74.24,P68,-3.190,P5,65.41,P93,74.24,P68
7596,C94,,93.7%,Max,83.25,P4,5.091,P4,184.3,P6,-0.6719,P2,300.7,P6,2.701,P4,184.3,P6,300.7,P6
7596,C94,,93.7%,Min,-67.13,P5,-2.938,P5,67.55,P69,-3.156,P33,99.91,P68,-3.686,P5,67.59,P93,99.92,P68
7596,C94,5990,100.0%,Max,83.25,P4,5.091,P4,187.2,P6,-0.6719,P2,372.4,P6,2.460,P69,187.2,P6,372.4,P6
7596,C94,5990,100.0%,Min,-67.13,P5,-2.938,P5,69.73,P69,-3.156,P33,126.4,P68,-4.182,P5,69.77,P93,126.4,P68
7597,C94,5971,0.0%,Max,272.6,P2,5.556,P2,-65.56,P92,0.4009,P4,157.0,P26,3.827,P2,158.3,P22,157.0,P26
7597,C94,5971,0.0%,Min,-149.0,P3,-9.852,P3,-158.3,P22,-1.246,P5,29.06,P3,-6.865,P3,65.66,P92,29.86,P3
7597,C94,,5.0%,Max,272.6,P2,5.556,P2,-63.43,P92,0.4009,P4,97.84,P26,4.872,P2,155.5,P22,97.85,P26
7597,C94,,5.0%,Min,-149.0,P3,-9.852,P3,-155.4,P22,-1.246,P5,1.664,P3,-6.291,P3,63.54,P92,6.507,P3
7597,C94,,10.0%,Max,272.6,P2,5.556,P2,-61.30,P92,0.4009,P4,44.80,P14,5.916,P2,152.6,P22,44.80,P14
7597,C94,,10.0%,Min,-149.0,P3,-9.852,P3,-152.5,P22,-1.246,P5,-24.93,P3,-5.717,P3,61.41,P92,0.9095,P61
7597,C94,,15.0%,Max,272.6,P2,5.556,P2,-59.18,P92,0.4009,P4,12.15,P2,6.961,P2,149.7,P22,50.99,P3
7597,C94,,15.0%,Min,-149.0,P3,-9.852,P3,-149.7,P22,-1.246,P5,-50.73,P3,-5.142,P3,59.29,P92,1.315,P42
7597,C94,,20.0%,Max,272.6,P2,5.556,P2,-57.05,P92,0.4009,P4,-12.78,P55,8.005,P2,146.8,P22,92.51,P8
7597,C94,,20.0%,Min,-149.0,P3,-9.852,P3,-146.8,P22,-1.246,P5,-92.49,P8,-4.568,P3,57.16,P92,12.79,P55
7597,C94,,20.0%,Max,232.0,P2,2.710,P69,-40.70,P2,-2.000,P57,-28.15,P55,1.646,P69,103.3,P31,129.3,P8
7597,C94,,20.0%,Min,-121.9,P3,-4.087,P3,-103.3,P31,-5.863,P22,-129.3,P8,-2.310,P5,40.78,P2,28.15,P55
7597,C94,,25.0%,Max,232.0,P2,2.710,P69,-38.57,P2,-2.000,P57,-45.39,P50,2.109,P2,100.5,P31,166.5,P8
7597,C94,,25.0%,Min,-121.9,P3,-4.087,P3,-100.5,P31,-5.863,P22,-166.5,P8,-2.268,P3,38.65,P2,45.39,P50
7597,C94,,30.0%,Max,232.0,P2,2.710,P69,-36.44,P2,-2.000,P57,-61.70,P50,2.718,P2,97.60,P31,202.6,P8
7597,C94,,30.0%,Min,-121.9,P3,-4.087,P3,-97.60,P31,-5.863,P22,-202.6,P8,-2.281,P3,36.53,P2,61.70,P50
7597,C94,,35.0%,Max,232.0,P2,2.710,P69,-34.31,P2,-2.000,P57,-77.22,P50,3.328,P2,94.72,P31,237.7,P8
7597,C94,,35.0%,Min,-121.9,P3,-4.087,P3,-94.72,P31,-5.863,P22,-237.7,P8,-2.293,P3,34.41,P2,77.22,P50
7597,C94,,40.0%,Max,232.0,P2,2.710,P69,-32.19,P2,-2.000,P57,-91.93,P50,3.938,P2,91.85,P31,271.7,P8
7597,C94,,40.0%,Min,-121.9,P3,-4.087,P3,-91.85,P31,-5.863,P22,-271.7,P8,-2.439,P69,32.28,P2,91.94,P50
7597,C94,,40.0%,Max,173.4,P2,1.500,P4,8.512,P2,3.987,P6,-98.01,P50,1.245,P4,9.364,P3,286.5,P8
7597,C94,,40.0%,Min,-87.28,P3,-1.710,P5,-9.262,P3,0.6101,P92,-286.5,P8,-1.178,P5,0.2598,P1,98.01,P50
7597,C94,,45.0%,Max,173.4,P2,1.500,P4,10.64,P2,3.987,P6,-100.0,P50,1.318,P4,10.70,P2,285.4,P8
7597,C94,,45.0%,Min,-87.28,P3,-1.710,P5,-7.134,P3,0.6101,P92,-285.4,P8,-1.172,P5,0.4096,P31,100.0,P50
7597,C94,,50.0%,Max,173.4,P2,1.500,P4,12.77,P2,3.987,P6,-101.2,P46,1.391,P4,12.82,P2,283.1,P8
7597,C94,,50.0%,Min,-87.28,P3,-1.710,P5,-5.005,P3,0.6101,P92,-283.1,P8,-1.166,P5,0.1819,P42,101.2,P46
7597,C94,,55.0%,Max,173.4,P2,1.500,P4,14.90,P2,3.987,P6,-101.6,P46,1.463,P4,14.94,P2,279.8,P8
7597,C94,,55.0%,Min,-87.28,P3,-1.710,P5,-2.876,P3,0.6101,P92,-279.8,P8,-1.160,P5,0.2315,P55,101.6,P46
7597,C94,,60.0%,Max,173.4,P2,1.500,P4,17.03,P2,3.987,P6,-101.2,P46,1.606,P2,17.07,P2,275.4,P8
7597,C94,,60.0%,Min,-87.28,P3,-1.710,P5,-0.7472,P3,0.6101,P92,-275.4,P8,-1.223,P3,1.568,P3,101.2,P46
7597,C94,,60.0%,Max,132.5,P4,1.711,P4,117.6,P25,4.846,P6,-93.50,P70,1.798,P2,117.6,P25,256.8,P8
7597,C94,,60.0%,Min,-67.26,P69,-0.9464,P5,42.67,P55,1.545,P69,-256.8,P8,-0.9460,P3,42.67,P55,93.50,P70
7597,C94,,65.0%,Max,132.5,P4,1.711,P4,120.5,P25,4.846,P6,-76.04,P71,1.483,P2,120.5,P25,212.1,P8
7597,C94,,65.0%,Min,-67.26,P69,-0.9464,P5,44.80,P55,1.545,P69,-212.1,P8,-0.9195,P3,44.80,P55,76.04,P71
7597,C94,,70.0%,Max,132.5,P4,1.711,P4,123.3,P25,4.846,P6,-57.62,P71,1.262,P4,123.3,P25,166.3,P8
7597,C94,,70.0%,Min,-67.26,P69,-0.9464,P5,46.93,P55,1.545,P69,-166.3,P8,-0.9865,P5,46.93,P55,57.62,P71
7597,C94,,75.0%,Max,132.5,P4,1.711,P4,126.2,P25,4.846,P6,-38.00,P73,1.062,P4,126.2,P25,119.4,P8
7597,C94,,75.0%,Min,-67.26,P69,-0.9464,P5,49.06,P55,1.545,P69,-119.4,P8,-1.075,P5,49.06,P55,38.00,P73
7597,C94,,80.0%,Max,132.5,P4,1.711,P4,129.1,P25,4.846,P6,-14.45,P2,0.8629,P4,129.1,P25,72.02,P33
7597,C94,,80.0%,Min,-67.26,P69,-0.9464,P5,51.19,P55,1.545,P69,-72.02,P33,-1.164,P5,51.19,P55,14.46,P2
7597,C94,,80.0%,Max,110.9,P4,3.884,P2,202.9,P8,5.536,P24,2.449,P2,3.310,P2,202.9,P8,41.50,P33
7597,C94,,80.0%,Min,-64.25,P69,-2.234,P3,78.25,P55,1.480,P69,-41.50,P33,-1.997,P3,78.25,P55,4.020,P4
7597,C94,,85.0%,Max,110.9,P4,3.884,P2,205.7,P8,5.536,P24,43.95,P2,2.842,P2,205.7,P8,44.04,P2
7597,C94,,85.0%,Min,-64.25,P69,-2.234,P3,80.38,P55,1.480,P69,-1.889,P3,-2.151,P3,80.38,P55,2.862,P3
7597,C94,,90.0%,Max,110.9,P4,3.884,P2,208.6,P8,5.536,P24,121.5,P25,2.374,P2,208.6,P8,121.5,P25
7597,C94,,90.0%,Min,-64.25,P69,-2.234,P3,82.51,P55,1.480,P69,34.79,P3,-2.304,P3,82.51,P55,34.87,P3
7597,C94,,95.0%,Max,110.9,P4,3.884,P2,211.5,P8,5.536,P24,200.3,P25,1.906,P2,211.5,P8,200.3,P25
7597,C94,,95.0%,Min,-64.25,P69,-2.234,P3,84.64,P55,1.480,P69,71.48,P69,-2.458,P3,84.64,P55,71.48,P69
7597,C94,5989,100.0%,Max,110.9,P4,3.884,P2,214.4,P8,5.536,P24,280.2,P25,1.438,P2,214.4,P8,280.2,P25
7597,C94,5989,100.0%,Min,-64.25,P69,-2.234,P3,86.77,P55,1.480,P69,105.7,P69,-2.612,P3,86.77,P55,105.7,P69
7598,C94,5965,0.0%,Max,58.28,P4,5.282,P4,-53.83,P4,17.15,P22,199.3,P8,4.374,P4,124.0,P32,199.3,P8
7598,C94,5965,0.0%,Min,-127.0,P5,-2.069,P5,-124.0,P32,6.577,P65,75.65,P5,-1.635,P5,54.09,P4,75.67,P5
7598,C94,,5.0%,Max,58.28,P4,5.282,P4,-51.67,P4,17.15,P22,152.6,P8,3.687,P4,121.1,P32,152.6,P8
7598,C94,,5.0%,Min,-127.0,P5,-2.069,P5,-121.1,P32,6.577,P65,54.95,P3,-2.177,P5,51.94,P4,54.97,P3
7598,C94,,10.0%,Max,58.28,P4,5.282,P4,-49.51,P4,17.15,P22,107.0,P8,3.001,P4,118.2,P32,107.0,P8
7598,C94,,10.0%,Min,-127.0,P5,-2.069,P5,-118.2,P32,6.577,P65,35.01,P3,-2.718,P5,49.79,P4,35.07,P3
7598,C94,,15.0%,Max,58.28,P4,5.282,P4,-47.35,P4,17.15,P22,62.50,P8,2.314,P4,115.3,P32,62.50,P8
7598,C94,,15.0%,Min,-127.0,P5,-2.069,P5,-115.3,P32,6.577,P65,15.89,P3,-3.260,P5,47.65,P4,16.09,P3
7598,C94,,20.0%,Max,58.28,P4,5.282,P4,-45.19,P4,17.15,P22,21.24,P2,1.628,P4,112.4,P32,21.26,P2
7598,C94,,20.0%,Min,-127.0,P5,-2.069,P5,-112.4,P32,6.577,P65,-2.398,P3,-3.802,P5,45.50,P4,3.585,P47
7598,C94,,20.0%,Max,55.73,P4,0.5980,P2,-31.60,P4,11.68,P32,16.40,P2,0.3407,P2,82.90,P32,16.40,P2
7598,C94,,20.0%,Min,-95.16,P5,-0.4892,P3,-82.90,P32,4.390,P49,-5.811,P3,-0.3202,P3,31.60,P4,0.1178,P47
7598,C94,,25.0%,Max,55.73,P4,0.5980,P2,-29.44,P4,11.68,P32,0.2094,P4,0.3795,P2,79.98,P32,22.66,P5
7598,C94,,25.0%,Min,-95.16,P5,-0.4892,P3,-79.98,P32,4.390,P49,-22.66,P5,-0.4006,P3,29.44,P4,0.4246,P4
7598,C94,,30.0%,Max,55.73,P4,0.5980,P2,-27.28,P4,11.68,P32,-14.72,P4,0.4508,P4,77.07,P32,51.67,P23
7598,C94,,30.0%,Min,-95.16,P5,-0.4892,P3,-77.07,P32,4.390,P49,-51.67,P23,-0.5136,P5,27.28,P4,14.73,P4
7598,C94,,35.0%,Max,55.73,P4,0.5980,P2,-25.12,P4,11.68,P32,-28.83,P4,0.5322,P4,74.15,P32,80.02,P27
7598,C94,,35.0%,Min,-95.16,P5,-0.4892,P3,-74.15,P32,4.390,P49,-80.02,P27,-0.6366,P5,25.12,P4,28.84,P4
7598,C94,,40.0%,Max,55.73,P4,0.5980,P2,-22.96,P4,11.68,P32,-42.11,P4,0.6136,P4,71.23,P32,107.7,P32
7598,C94,,40.0%,Min,-95.16,P5,-0.4892,P3,-71.23,P32,4.390,P49,-107.7,P32,-0.7596,P5,22.96,P4,42.12,P4
7598,C94,,40.0%,Max,53.82,P4,0.3743,P2,0.6718,P4,0.6866,P4,-41.94,P4,0.3871,P4,24.69,P5,109.2,P32
7598,C94,,40.0%,Min,-77.46,P5,-0.4457,P3,-24.69,P5,-0.2759,P5,-109.2,P32,-0.5642,P5,0.7337,P4,41.94,P4
7598,C94,,45.0%,Max,53.82,P4,0.3743,P2,2.832,P4,0.6866,P4,-41.57,P4,0.3947,P4,22.53,P5,116.9,P32
7598,C94,,45.0%,Min,-77.46,P5,-0.4457,P3,-22.53,P5,-0.2759,P5,-116.9,P32,-0.5445,P5,1.560,P2,41.57,P4
7598,C94,,50.0%,Max,53.82,P4,0.3743,P2,4.991,P4,0.6866,P4,-40.38,P4,0.4023,P4,20.38,P5,123.5,P32
7598,C94,,50.0%,Min,-77.46,P5,-0.4457,P3,-20.37,P5,-0.2759,P5,-123.5,P32,-0.5247,P5,2.947,P48,40.38,P4
7598,C94,,55.0%,Max,53.82,P4,0.3743,P2,7.151,P4,0.6866,P4,-38.36,P4,0.4098,P4,18.22,P5,129.0,P32
7598,C94,,55.0%,Min,-77.46,P5,-0.4457,P3,-18.21,P5,-0.2759,P5,-129.0,P32,-0.5050,P5,0.7960,P48,38.36,P4
7598,C94,,60.0%,Max,53.82,P4,0.3743,P2,9.311,P4,0.6866,P4,-35.52,P4,0.4174,P4,16.06,P5,133.4,P32
7598,C94,,60.0%,Min,-77.46,P5,-0.4457,P3,-16.05,P5,-0.2759,P5,-133.4,P32,-0.4853,P5,0.06246,P41,35.52,P4
7598,C94,,60.0%,Max,44.41,P4,0.4237,P4,38.56,P24,-3.944,P68,-34.68,P4,0.5527,P4,38.56,P24,133.6,P32
7598,C94,,60.0%,Min,-61.14,P5,-0.4325,P5,5.364,P5,-11.31,P31,-133.6,P32,-0.6932,P5,5.381,P5,34.68,P4
7598,C94,,65.0%,Max,44.41,P4,0.4237,P4,41.47,P24,-3.944,P68,-22.33,P4,0.4620,P4,41.47,P24,119.5,P32
7598,C94,,65.0%,Min,-61.14,P5,-0.4325,P5,7.524,P5,-11.31,P31,-119.5,P32,-0.5992,P5,7.536,P5,22.33,P4
7598,C94,,70.0%,Max,44.41,P4,0.4237,P4,44.39,P24,-3.944,P68,-9.151,P4,0.3713,P4,44.39,P24,104.3,P32
7598,C94,,70.0%,Min,-61.14,P5,-0.4325,P5,9.683,P5,-11.31,P31,-104.3,P32,-0.5052,P5,9.693,P5,9.159,P4
7598,C94,,75.0%,Max,44.41,P4,0.4237,P4,47.30,P24,-3.944,P68,4.852,P4,0.2807,P4,47.30,P24,91.92,P5
7598,C94,,75.0%,Min,-61.14,P5,-0.4325,P5,11.84,P5,-11.31,P31,-91.92,P5,-0.4111,P5,11.85,P5,2.672,P2
7598,C94,,80.0%,Max,44.41,P4,0.4237,P4,50.22,P24,-3.944,P68,19.68,P4,0.2412,P2,50.22,P24,86.87,P5
7598,C94,,80.0%,Min,-61.14,P5,-0.4325,P5,14.00,P5,-11.31,P31,-86.87,P5,-0.3683,P3,14.01,P5,11.74,P2
7598,C94,,80.0%,Max,19.59,P4,1.524,P4,85.51,P31,-7.089,P68,23.52,P4,1.353,P4,85.52,P31,85.74,P5
7598,C94,,80.0%,Min,-38.21,P5,-2.726,P5,31.43,P5,-19.55,P31,-85.71,P5,-2.193,P5,31.55,P5,10.22,P48
7598,C94,,85.0%,Max,19.59,P4,1.524,P4,88.42,P31,-7.089,P68,45.18,P4,1.511,P4,88.44,P31,73.21,P5
7598,C94,,85.0%,Min,-38.21,P5,-2.726,P5,33.59,P5,-19.55,P31,-73.19,P5,-1.892,P5,33.70,P5,0.4308,P41
7598,C94,,90.0%,Max,19.59,P4,1.524,P4,91.34,P31,-7.089,P68,67.66,P4,1.670,P4,91.35,P31,67.68,P4
7598,C94,,90.0%,Min,-38.21,P5,-2.726,P5,35.75,P5,-19.55,P31,-59.84,P5,-1.591,P5,35.86,P5,0.4727,P32
7598,C94,,95.0%,Max,19.59,P4,1.524,P4,94.25,P31,-7.089,P68,90.97,P4,1.828,P4,94.27,P31,90.99,P4
7598,C94,,95.0%,Min,-38.21,P5,-2.726,P5,37.91,P5,-19.55,P31,-45.66,P5,-1.290,P5,38.01,P5,0.7413,P68
7598,C94,5962,100.0%,Max,19.59,P4,1.524,P4,97.17,P31,-7.089,P68,115.1,P4,1.987,P4,97.18,P31,115.1,P4
7598,C94,5962,100.0%,Min,-38.21,P5,-2.726,P5,40.07,P5,-19.55,P31,-30.66,P5,-0.9883,P5,40.16,P5,16.59,P68
7599,C94,6420,0.0%,Max,409.6,P4,23.63,P4,-43.92,P49,18.71,P24,211.6,P31,20.49,P4,104.7,P33,211.6,P31
7599,C94,6420,0.0%,Min,-653.1,P5,-16.81,P5,-104.7,P33,6.802,P68,80.30,P49,-14.51,P5,46.13,P73,81.32,P49
7599,C94,,5.0%,Max,409.6,P4,23.63,P4,-42.03,P49,18.71,P24,177.0,P31,17.40,P4,102.1,P33,177.0,P31
7599,C94,,5.0%,Min,-653.1,P5,-16.81,P5,-102.1,P33,6.802,P68,65.86,P49,-13.71,P5,44.30,P71,66.32,P49
7599,C94,,10.0%,Max,409.6,P4,23.63,P4,-40.13,P49,18.71,P24,143.3,P31,14.30,P4,99.58,P33,143.3,P31
7599,C94,,10.0%,Min,-653.1,P5,-16.81,P5,-99.58,P33,6.802,P68,52.05,P49,-12.90,P5,42.43,P71,52.13,P49
7599,C94,,15.0%,Max,409.6,P4,23.63,P4,-38.23,P49,18.71,P24,110.4,P31,11.21,P4,97.02,P33,110.4,P31
7599,C94,,15.0%,Min,-653.1,P5,-16.81,P5,-97.02,P33,6.802,P68,38.13,P5,-12.10,P5,40.56,P71,38.75,P47
7599,C94,,20.0%,Max,409.6,P4,23.63,P4,-36.33,P49,18.71,P24,78.38,P31,8.115,P4,94.45,P33,78.41,P31
7599,C94,,20.0%,Min,-653.1,P5,-16.81,P5,-94.45,P33,6.802,P68,23.76,P5,-11.30,P5,38.69,P71,25.68,P47
7599,C94,,20.0%,Max,281.8,P4,1.021,P4,-24.60,P49,10.57,P24,73.64,P31,1.201,P4,62.89,P33,73.64,P31
7599,C94,,20.0%,Min,-489.3,P5,-1.131,P5,-62.89,P33,3.683,P68,21.75,P5,-0.9764,P5,24.60,P49,21.77,P5
7599,C94,,25.0%,Max,281.8,P4,1.021,P4,-22.70,P49,10.57,P24,53.05,P31,1.086,P4,60.33,P33,53.05,P31
7599,C94,,25.0%,Min,-489.3,P5,-1.131,P5,-60.33,P33,3.683,P68,13.01,P5,-0.8250,P5,22.70,P49,13.03,P5
7599,C94,,30.0%,Max,281.8,P4,1.021,P4,-20.80,P49,10.57,P24,33.64,P19,1.010,P2,57.77,P33,33.64,P19
7599,C94,,30.0%,Min,-489.3,P5,-1.131,P5,-57.77,P33,3.683,P68,4.904,P5,-0.7109,P3,20.80,P49,4.950,P5
7599,C94,,35.0%,Max,281.8,P4,1.021,P4,-18.90,P49,10.57,P24,16.94,P4,0.9590,P2,55.21,P33,16.96,P4
7599,C94,,35.0%,Min,-489.3,P5,-1.131,P5,-55.21,P33,3.683,P68,-2.561,P5,-0.6231,P3,18.90,P49,0.05082,P46
7599,C94,,40.0%,Max,281.8,P4,1.021,P4,-17.00,P49,10.57,P24,5.546,P4,0.9084,P2,52.64,P33,9.659,P11
7599,C94,,40.0%,Min,-489.3,P5,-1.131,P5,-52.64,P33,3.683,P68,-9.658,P11,-0.5354,P3,17.00,P49,0.1823,P42
7599,C94,,40.0%,Max,197.8,P4,0.7065,P4,1.410,P2,0.3518,P2,4.356,P4,0.9943,P2,13.19,P3,10.94,P11
7599,C94,,40.0%,Min,-378.7,P5,-0.6664,P5,-13.18,P3,-0.3131,P3,-10.94,P11,-0.6398,P3,0.6313,P49,0.1833,P66
7599,C94,,45.0%,Max,197.8,P4,0.7065,P4,3.309,P2,0.3518,P2,2.008,P4,0.8774,P2,11.29,P3,12.90,P10
7599,C94,,45.0%,Min,-378.7,P5,-0.6664,P5,-11.28,P3,-0.3131,P3,-12.90,P10,-0.5363,P3,0.1942,P37,0.1964,P91
7599,C94,,50.0%,Max,197.8,P4,0.7065,P4,5.207,P2,0.3518,P2,0.4217,P2,0.7604,P2,9.398,P3,14.04,P22
7599,C94,,50.0%,Min,-378.7,P5,-0.6664,P5,-9.386,P3,-0.3131,P3,-14.04,P22,-0.4328,P3,0.08850,P50,0.7787,P4
7599,C94,,55.0%,Max,197.8,P4,0.7065,P4,7.106,P2,0.3518,P2,0.01634,P2,0.6435,P2,7.503,P3,15.40,P20
7599,C94,,55.0%,Min,-378.7,P5,-0.6664,P5,-7.488,P3,-0.3131,P3,-15.40,P20,-0.3293,P3,0.05478,P59,0.6437,P2
7599,C94,,60.0%,Max,197.8,P4,0.7065,P4,9.004,P2,0.3518,P2,0.3306,P49,0.5266,P2,9.019,P2,16.20,P20
7599,C94,,60.0%,Min,-378.7,P5,-0.6664,P5,-5.589,P3,-0.3131,P3,-16.19,P20,-0.2259,P3,0.1623,P8,0.2657,P53
7599,C94,,60.0%,Max,130.7,P4,1.524,P4,47.31,P25,-3.934,P46,0.9366,P2,1.280,P2,47.31,P25,15.82,P20
7599,C94,,60.0%,Min,-282.3,P5,-1.030,P5,13.67,P69,-10.66,P33,-15.82,P20,-0.7184,P3,13.68,P69,0.5721,P73
7599,C94,,65.0%,Max,130.7,P4,1.524,P4,49.87,P25,-3.934,P46,11.14,P2,1.120,P2,49.87,P25,11.20,P2
7599,C94,,65.0%,Min,-282.3,P5,-1.030,P5,15.57,P69,-10.66,P33,-5.854,P3,-0.7244,P3,15.58,P69,0.1003,P39
7599,C94,,70.0%,Max,130.7,P4,1.524,P4,52.43,P25,-3.934,P46,24.90,P13,0.9947,P4,52.44,P25,24.90,P13
7599,C94,,70.0%,Min,-282.3,P5,-1.030,P5,17.47,P69,-10.66,P33,0.3217,P3,-0.7650,P5,17.47,P69,0.4662,P68
7599,C94,,75.0%,Max,130.7,P4,1.524,P4,55.00,P25,-3.934,P46,41.98,P25,0.9120,P4,55.00,P25,41.98,P25
7599,C94,,75.0%,Min,-282.3,P5,-1.030,P5,19.37,P69,-10.66,P33,6.741,P68,-0.8482,P5,19.37,P69,6.743,P68
7599,C94,,80.0%,Max,130.7,P4,1.524,P4,57.56,P25,-3.934,P46,60.90,P25,0.8292,P4,57.56,P25,60.90,P25
7599,C94,,80.0%,Min,-282.3,P5,-1.030,P5,21.27,P69,-10.66,P33,13.65,P68,-0.9313,P5,21.27,P69,13.66,P68
7599,C94,,80.0%,Max,82.62,P4,6.436,P2,88.45,P25,-6.321,P47,64.59,P25,3.297,P2,88.47,P25,64.60,P25
7599,C94,,80.0%,Min,-202.7,P5,-6.221,P3,32.94,P69,-17.13,P31,14.94,P68,-3.086,P3,33.12,P69,15.05,P68
7599,C94,,85.0%,Max,82.62,P4,6.436,P2,91.02,P25,-6.321,P47,94.75,P25,3.798,P2,91.04,P25,94.75,P25
7599,C94,,85.0%,Min,-202.7,P5,-6.221,P3,34.84,P69,-17.13,P31,26.41,P68,-3.659,P3,35.01,P69,26.41,P68
7599,C94,,90.0%,Max,82.62,P4,6.436,P2,93.58,P25,-6.321,P47,125.8,P25,4.299,P2,93.60,P25,125.8,P25
7599,C94,,90.0%,Min,-202.7,P5,-6.221,P3,36.74,P69,-17.13,P31,38.51,P68,-4.233,P3,36.90,P69,38.52,P68
7599,C94,,95.0%,Max,82.62,P4,6.436,P2,96.14,P25,-6.321,P47,157.7,P25,4.871,P4,96.16,P25,157.7,P25
7599,C94,,95.0%,Min,-202.7,P5,-6.221,P3,38.64,P69,-17.13,P31,51.26,P68,-4.877,P5,38.79,P69,51.29,P68
7599,C94,5965,100.0%,Max,82.62,P4,6.436,P2,98.70,P25,-6.321,P47,190.4,P25,5.468,P4,98.72,P25,190.4,P25
7599,C94,5965,100.0%,Min,-202.7,P5,-6.221,P3,40.54,P69,-17.13,P31,64.64,P68,-5.546,P5,40.69,P69,64.71,P68
7600,C94,4787,0.0%,Max,488.3,P4,16.67,P2,-82.35,P92,31.17,P31,260.9,P24,15.99,P2,165.7,P24,261.0,P24
7600,C94,4787,0.0%,Min,-832.6,P5,-8.526,P3,-165.4,P24,10.77,P48,113.4,P66,-8.419,P3,82.37,P92,113.4,P66
7600,C94,,4.2%,Max,488.3,P4,16.67,P2,-78.73,P92,31.17,P31,198.2,P24,13.38,P2,160.8,P24,198.2,P24
7600,C94,,4.2%,Min,-832.6,P5,-8.526,P3,-160.5,P24,10.77,P48,82.24,P66,-8.940,P3,78.75,P92,82.27,P66
7600,C94,,8.3%,Max,488.3,P4,16.67,P2,-75.11,P92,31.17,P31,137.4,P24,10.77,P2,155.9,P24,137.4,P24
7600,C94,,8.3%,Min,-832.6,P5,-8.526,P3,-155.6,P24,10.77,P48,51.96,P3,-9.462,P3,75.12,P92,52.52,P66
7600,C94,,12.5%,Max,488.3,P4,16.67,P2,-71.49,P92,31.17,P31,78.43,P24,8.159,P2,151.0,P24,78.49,P24
7600,C94,,12.5%,Min,-832.6,P5,-8.526,P3,-150.8,P24,10.77,P48,20.96,P3,-9.983,P3,71.50,P92,23.22,P3
7600,C94,,16.7%,Max,488.3,P4,16.67,P2,-67.87,P92,31.17,P31,24.83,P12,5.548,P2,146.2,P24,25.99,P12
7600,C94,,16.7%,Min,-832.6,P5,-8.526,P3,-145.9,P24,10.77,P48,-8.643,P3,-10.50,P3,67.88,P92,0.4318,P63
7600,C94,,16.7%,Max,485.3,P4,1.889,P2,-54.16,P51,21.00,P31,21.42,P2,3.905,P2,107.3,P33,21.78,P2
7600,C94,,16.7%,Min,-796.4,P5,-1.044,P3,-107.3,P33,6.511,P48,-11.25,P3,-3.575,P3,54.17,P51,0.04773,P45
7600,C94,,20.8%,Max,485.3,P4,1.889,P2,-50.54,P51,21.00,P31,-2.155,P2,3.596,P2,102.5,P33,36.26,P18
7600,C94,,20.8%,Min,-796.4,P5,-1.044,P3,-102.5,P33,6.511,P48,-36.25,P18,-3.591,P3,50.54,P51,2.853,P48
7600,C94,,25.0%,Max,485.3,P4,1.889,P2,-46.92,P51,21.00,P31,-21.19,P48,3.287,P2,97.56,P33,73.67,P30
7600,C94,,25.0%,Min,-796.4,P5,-1.044,P3,-97.56,P33,6.511,P48,-73.67,P30,-3.608,P3,46.92,P51,21.26,P48
7600,C94,,29.2%,Max,485.3,P4,1.889,P2,-43.30,P51,21.00,P31,-38.80,P48,2.978,P2,92.67,P33,110.2,P30
7600,C94,,29.2%,Min,-796.4,P5,-1.044,P3,-92.67,P33,6.511,P48,-110.2,P30,-3.624,P3,43.30,P51,38.84,P48
7600,C94,,33.3%,Max,485.3,P4,1.889,P2,-39.68,P51,21.00,P31,-55.01,P48,2.669,P2,87.79,P33,144.8,P30
7600,C94,,33.3%,Min,-796.4,P5,-1.044,P3,-87.78,P33,6.511,P48,-144.8,P30,-3.641,P3,39.68,P51,55.04,P48
7600,C94,,33.3%,Max,498.8,P4,1.459,P2,-18.58,P2,7.410,P31,-56.59,P48,4.359,P2,38.75,P24,148.4,P30
7600,C94,,33.3%,Min,-789.9,P5,-0.9093,P3,-38.75,P24,1.826,P48,-148.4,P30,-4.323,P3,18.63,P2,56.61,P48
7600,C94,,37.5%,Max,498.8,P4,1.459,P2,-14.95,P2,7.410,P31,-64.53,P48,4.023,P2,33.86,P24,162.1,P30
7600,C94,,37.5%,Min,-789.9,P5,-0.9093,P3,-33.86,P24,1.826,P48,-162.1,P30,-4.198,P3,15.02,P2,64.55,P48
7600,C94,,41.7%,Max,498.8,P4,1.459,P2,-11.33,P2,7.410,P31,-71.08,P48,3.686,P2,28.97,P24,173.9,P30
7600,C94,,41.7%,Min,-789.9,P5,-0.9093,P3,-28.97,P24,1.826,P48,-173.9,P30,-4.073,P3,11.43,P2,71.09,P48
7600,C94,,45.8%,Max,498.8,P4,1.459,P2,-7.710,P2,7.410,P31,-76.24,P48,3.350,P2,24.08,P24,183.9,P30
7600,C94,,45.8%,Min,-789.9,P5,-0.9093,P3,-24.08,P24,1.826,P48,-183.9,P30,-3.948,P3,7.846,P2,76.25,P48
7600,C94,,50.0%,Max,498.8,P4,1.459,P2,-4.088,P2,7.410,P31,-80.00,P48,3.013,P2,19.19,P24,192.0,P30
7600,C94,,50.0%,Min,-789.9,P5,-0.9093,P3,-19.19,P24,1.826,P48,-192.0,P30,-3.823,P3,4.340,P2,80.01,P48
7600,C94,,50.0%,Max,514.0,P4,1.485,P4,20.59,P27,0.08393,P67,-79.66,P48,4.688,P2,20.59,P27,191.1,P30
7600,C94,,50.0%,Min,-793.0,P5,-1.038,P5,4.993,P3,-2.517,P24,-191.1,P30,-5.002,P3,5.089,P3,79.67,P48
7600,C94,,54.2%,Max,514.0,P4,1.485,P4,25.48,P27,0.08393,P67,-76.32,P48,4.282,P2,25.48,P27,182.3,P30
7600,C94,,54.2%,Min,-793.0,P5,-1.038,P5,8.615,P3,-2.517,P24,-182.3,P30,-4.768,P3,8.671,P3,76.33,P48
7600,C94,,58.3%,Max,514.0,P4,1.485,P4,30.37,P27,0.08393,P67,-71.58,P48,3.876,P2,30.37,P27,171.7,P30
7600,C94,,58.3%,Min,-793.0,P5,-1.038,P5,12.24,P3,-2.517,P24,-171.7,P30,-4.535,P3,12.28,P3,71.59,P48
7600,C94,,62.5%,Max,514.0,P4,1.485,P4,35.26,P27,0.08393,P67,-65.38,P49,3.471,P2,35.26,P27,159.1,P30
7600,C94,,62.5%,Min,-793.0,P5,-1.038,P5,15.86,P3,-2.517,P24,-159.1,P30,-4.302,P3,15.89,P3,65.39,P49
7600,C94,,66.7%,Max,514.0,P4,1.485,P4,40.15,P27,0.08393,P67,-57.78,P49,3.065,P2,40.15,P27,144.6,P30
7600,C94,,66.7%,Min,-793.0,P5,-1.038,P5,19.48,P3,-2.517,P24,-144.6,P30,-4.068,P3,19.51,P3,57.79,P49
7600,C94,,66.7%,Max,528.5,P4,2.629,P4,93.48,P31,-6.585,P91,-56.62,P49,4.939,P2,93.48,P31,142.5,P30
7600,C94,,66.7%,Min,-805.9,P5,-1.797,P5,41.46,P48,-18.98,P24,-142.5,P30,-5.658,P3,41.47,P48,56.63,P49
7600,C94,,70.8%,Max,528.5,P4,2.629,P4,98.37,P31,-6.585,P91,-39.89,P49,4.296,P2,98.37,P31,105.6,P30
7600,C94,,70.8%,Min,-805.9,P5,-1.797,P5,45.08,P48,-18.98,P24,-105.6,P30,-5.335,P3,45.09,P48,39.92,P49
7600,C94,,75.0%,Max,528.5,P4,2.629,P4,103.3,P31,-6.585,P91,-20.84,P4,3.653,P2,103.3,P31,66.88,P30
7600,C94,,75.0%,Min,-805.9,P5,-1.797,P5,48.71,P48,-18.98,P24,-66.87,P30,-5.012,P3,48.71,P48,21.01,P4
7600,C94,,79.2%,Max,528.5,P4,2.629,P4,108.1,P31,-6.585,P91,2.391,P4,3.010,P2,108.2,P31,28.20,P18
7600,C94,,79.2%,Min,-805.9,P5,-1.797,P5,52.33,P48,-18.98,P24,-28.19,P18,-4.689,P3,52.33,P48,2.955,P49
7600,C94,,83.3%,Max,528.5,P4,2.629,P4,113.0,P31,-6.585,P91,27.01,P4,2.367,P2,113.0,P31,27.04,P4
7600,C94,,83.3%,Min,-805.9,P5,-1.797,P5,55.95,P48,-18.98,P24,-4.271,P5,-4.366,P3,55.95,P48,0.1146,P66
7600,C94,,83.3%,Max,543.5,P2,9.292,P2,153.5,P27,-11.22,P68,33.22,P13,5.590,P2,153.6,P27,34.72,P13
7600,C94,,83.3%,Min,-840.7,P3,-19.40,P3,70.85,P48,-31.16,P25,-0.3172,P3,-12.03,P3,71.59,P57,3.750,P66
7600,C94,,87.5%,Max,543.5,P2,9.292,P2,158.3,P27,-11.22,P68,92.52,P25,9.040,P2,158.5,P27,92.57,P25
7600,C94,,87.5%,Min,-840.7,P3,-19.40,P3,74.47,P48,-31.16,P25,30.50,P3,-11.59,P3,75.21,P57,31.83,P66
7600,C94,,91.7%,Max,543.5,P2,9.292,P2,163.2,P27,-11.22,P68,154.1,P25,12.49,P2,163.4,P27,154.1,P25
7600,C94,,91.7%,Min,-840.7,P3,-19.40,P3,78.09,P48,-31.16,P25,61.66,P66,-11.16,P3,78.83,P57,61.66,P66
7600,C94,,95.8%,Max,543.5,P2,9.292,P2,168.1,P27,-11.22,P68,217.6,P25,15.94,P2,168.3,P27,217.8,P25
7600,C94,,95.8%,Min,-840.7,P3,-19.40,P3,81.71,P48,-31.16,P25,92.79,P68,-10.72,P3,82.46,P57,92.89,P68
7600,C94,6420,100.0%,Max,543.5,P2,9.292,P2,173.0,P27,-11.22,P68,283.0,P25,19.39,P2,173.2,P27,283.3,P25
7600,C94,6420,100.0%,Min,-840.7,P3,-19.40,P3,85.33,P48,-31.16,P25,125.3,P68,-10.28,P3,86.08,P57,125.5,P68
7601,C94,5968,0.0%,Max,275.7,P2,6.576,P2,-27.03,P2,12.36,P24,91.43,P31,6.965,P2,68.50,P31,91.44,P31
7601,C94,5968,0.0%,Min,-510.8,P3,-4.303,P3,-68.50,P31,4.030,P66,3.467,P3,-4.461,P3,27.82,P2,5.649,P3
7601,C94,,6.2%,Max,275.7,P2,6.576,P2,-24.68,P2,12.36,P24,64.04,P19,5.905,P2,65.33,P31,64.04,P19
7601,C94,,6.2%,Min,-510.8,P3,-4.303,P3,-65.32,P31,4.030,P66,-7.382,P3,-4.347,P3,25.54,P2,5.497,P5
7601,C94,,12.5%,Max,275.7,P2,6.576,P2,-22.32,P2,12.36,P24,46.07,P2,4.846,P2,62.16,P31,46.32,P2
7601,C94,,12.5%,Min,-510.8,P3,-4.303,P3,-62.15,P31,4.030,P66,-17.25,P3,-4.233,P3,23.27,P2,3.653,P49
7601,C94,,18.7%,Max,275.7,P2,6.576,P2,-19.97,P2,12.36,P24,29.77,P2,3.786,P2,58.98,P31,30.01,P2
7601,C94,,18.7%,Min,-510.8,P3,-4.303,P3,-58.97,P31,4.030,P66,-26.14,P3,-4.119,P3,21.03,P2,0.4151,P39
7601,C94,,25.0%,Max,275.7,P2,6.576,P2,-17.62,P2,12.36,P24,14.45,P2,2.726,P2,55.81,P31,34.29,P3
7601,C94,,25.0%,Min,-510.8,P3,-4.303,P3,-55.80,P31,4.030,P66,-34.05,P3,-4.005,P3,18.81,P2,0.5820,P43
7601,C94,,25.0%,Max,266.2,P2,1.280,P2,-3.610,P2,8.187,P24,12.10,P2,1.793,P2,26.43,P31,34.44,P3
7601,C94,,25.0%,Min,-517.3,P3,-1.139,P3,-26.43,P31,2.428,P66,-34.43,P3,-1.025,P3,3.830,P2,0.5705,P67
7601,C94,,31.2%,Max,266.2,P2,1.280,P2,-1.258,P2,8.187,P24,3.364,P2,1.654,P2,23.26,P31,35.58,P3
7601,C94,,31.2%,Min,-517.3,P3,-1.139,P3,-23.26,P31,2.428,P66,-35.57,P3,-0.9442,P3,1.795,P2,1.646,P4
7601,C94,,37.5%,Max,266.2,P2,1.280,P2,1.093,P2,8.187,P24,-4.392,P2,1.514,P2,20.08,P31,38.42,P6
7601,C94,,37.5%,Min,-517.3,P3,-1.139,P3,-20.08,P31,2.428,P66,-38.41,P6,-0.8637,P3,1.138,P4,4.646,P2
7601,C94,,43.7%,Max,266.2,P2,1.280,P2,3.445,P2,8.187,P24,-11.17,P2,1.375,P2,16.91,P31,44.71,P6
7601,C94,,43.7%,Min,-517.3,P3,-1.139,P3,-16.91,P31,2.428,P66,-44.70,P6,-0.7832,P3,1.711,P49,11.25,P2
7601,C94,,50.0%,Max,266.2,P2,1.280,P2,5.796,P2,8.187,P24,-16.97,P2,1.235,P2,13.74,P31,49.92,P23
7601,C94,,50.0%,Min,-517.3,P3,-1.139,P3,-13.74,P31,2.428,P66,-49.92,P23,-0.7027,P3,0.4732,P71,17.01,P2
7601,C94,,50.0%,Max,295.4,P2,1.395,P2,48.58,P25,-2.847,P53,-16.54,P2,1.032,P2,48.58,P25,47.47,P23
7601,C94,,50.0%,Min,-561.5,P3,-1.866,P3,13.45,P3,-7.843,P32,-47.47,P23,-0.7659,P3,13.58,P3,16.57,P2
7601,C94,,56.3%,Max,295.4,P2,1.395,P2,51.75,P25,-2.847,P53,-4.674,P2,1.409,P2,51.75,P25,27.63,P30
7601,C94,,56.3%,Min,-561.5,P3,-1.866,P3,15.80,P3,-7.843,P32,-27.62,P30,-0.9478,P3,15.91,P3,4.881,P2
7601,C94,,62.5%,Max,295.4,P2,1.395,P2,54.92,P25,-2.847,P53,8.171,P2,1.787,P2,54.93,P25,11.42,P3
7601,C94,,62.5%,Min,-561.5,P3,-1.866,P3,18.15,P3,-7.843,P32,-11.36,P3,-1.130,P3,18.25,P3,0.5196,P71
7601,C94,,68.8%,Max,295.4,P2,1.395,P2,58.10,P25,-2.847,P53,21.99,P2,2.165,P2,58.10,P25,22.10,P2
7601,C94,,68.8%,Min,-561.5,P3,-1.866,P3,20.50,P3,-7.843,P32,-0.1568,P3,-1.311,P3,20.59,P3,1.278,P5
7601,C94,,75.0%,Max,295.4,P2,1.395,P2,61.27,P25,-2.847,P53,44.81,P25,2.543,P2,61.27,P25,44.83,P25
7601,C94,,75.0%,Min,-561.5,P3,-1.866,P3,22.85,P3,-7.843,P32,12.03,P3,-1.493,P3,22.93,P3,12.12,P3
7601,C94,,75.0%,Max,376.1,P2,8.270,P2,93.29,P25,-5.197,P67,53.70,P25,5.473,P2,93.46,P25,53.84,P25
7601,C94,,75.0%,Min,-667.0,P3,-12.94,P3,35.95,P67,-13.73,P24,15.45,P3,-8.426,P3,35.97,P67,16.50,P67
7601,C94,,81.3%,Max,376.1,P2,8.270,P2,96.47,P25,-5.197,P67,93.20,P25,7.405,P2,96.63,P25,93.21,P25
7601,C94,,81.3%,Min,-667.0,P3,-12.94,P3,38.30,P67,-13.73,P24,31.73,P3,-8.413,P3,38.32,P67,31.94,P67
7601,C94,,87.5%,Max,376.1,P2,8.270,P2,99.64,P25,-5.197,P67,134.0,P25,9.338,P2,99.80,P25,134.0,P25
7601,C94,,87.5%,Min,-667.0,P3,-12.94,P3,40.65,P67,-13.73,P24,48.37,P67,-8.399,P3,40.67,P67,48.37,P67
7601,C94,,93.8%,Max,376.1,P2,8.270,P2,102.8,P25,-5.197,P67,176.2,P25,11.27,P2,103.0,P25,176.2,P25
7601,C94,,93.8%,Min,-667.0,P3,-12.94,P3,43.00,P67,-13.73,P24,65.78,P67,-8.386,P3,43.02,P67,65.78,P67
7601,C94,4787,100.0%,Max,376.1,P2,8.270,P2,106.0,P25,-5.197,P67,219.6,P25,13.20,P2,106.1,P25,219.7,P25
7601,C94,4787,100.0%,Min,-667.0,P3,-12.94,P3,45.35,P67,-13.73,P24,84.17,P67,-8.372,P3,45.37,P67,84.18,P67
7602,C94,5977,0.0%,Max,454.1,P4,7.797,P4,-39.03,P92,13.21,P30,126.2,P6,6.931,P4,83.49,P31,126.3,P6
7602,C94,5977,0.0%,Min,-408.5,P5,-11.09,P5,-83.45,P31,5.039,P60,48.93,P68,-10.30,P5,39.05,P92,48.93,P68
7602,C94,,6.3%,Max,454.1,P4,7.797,P4,-36.71,P92,13.21,P30,92.69,P6,7.187,P4,80.36,P31,92.71,P6
7602,C94,,6.3%,Min,-408.5,P5,-11.09,P5,-80.31,P31,5.039,P60,33.29,P68,-9.203,P5,36.72,P92,33.30,P68
7602,C94,,12.5%,Max,454.1,P4,7.797,P4,-34.39,P92,13.21,P30,60.55,P25,7.444,P4,77.23,P31,60.55,P25
7602,C94,,12.5%,Min,-408.5,P5,-11.09,P5,-77.18,P31,5.039,P60,18.19,P5,-8.106,P5,34.40,P92,18.62,P68
7602,C94,,18.8%,Max,454.1,P4,7.797,P4,-32.07,P92,13.21,P30,29.73,P25,7.700,P4,74.10,P31,29.74,P25
7602,C94,,18.8%,Min,-408.5,P5,-11.09,P5,-74.05,P31,5.039,P60,3.374,P5,-7.010,P5,32.08,P92,4.966,P68
7602,C94,,25.0%,Max,454.1,P4,7.797,P4,-29.75,P92,13.21,P30,8.781,P2,7.956,P4,70.97,P31,12.04,P5
7602,C94,,25.0%,Min,-408.5,P5,-11.09,P5,-70.91,P31,5.039,P60,-10.76,P3,-5.913,P5,29.77,P92,0.6447,P46
7602,C94,,25.0%,Max,340.2,P4,2.154,P2,-11.80,P4,3.333,P31,6.084,P2,2.347,P2,29.65,P31,13.71,P3
7602,C94,,25.0%,Min,-356.6,P5,-3.516,P3,-29.63,P31,1.041,P49,-13.17,P3,-3.813,P3,11.98,P4,0.5881,P70
7602,C94,,31.3%,Max,340.2,P4,2.154,P2,-9.482,P4,3.333,P31,-0.2304,P2,2.296,P2,26.52,P31,21.58,P20
7602,C94,,31.3%,Min,-356.6,P5,-3.516,P3,-26.50,P31,1.041,P49,-21.56,P20,-3.201,P3,9.707,P4,2.077,P49
7602,C94,,37.5%,Max,340.2,P4,2.154,P2,-7.161,P4,3.333,P31,-5.591,P2,2.244,P2,23.39,P31,31.12,P32
7602,C94,,37.5%,Min,-356.6,P5,-3.516,P3,-23.36,P31,1.041,P49,-31.12,P32,-2.590,P3,7.456,P4,6.025,P2
7602,C94,,43.8%,Max,340.2,P4,2.154,P2,-4.841,P4,3.333,P31,-9.999,P2,2.355,P4,20.26,P31,40.02,P31
7602,C94,,43.8%,Min,-356.6,P5,-3.516,P3,-20.23,P31,1.041,P49,-40.02,P31,-2.142,P5,5.267,P4,10.24,P2
7602,C94,,50.0%,Max,340.2,P4,2.154,P2,-2.520,P4,3.333,P31,-13.45,P2,2.552,P4,17.13,P31,47.69,P31
7602,C94,,50.0%,Min,-356.6,P5,-3.516,P3,-17.10,P31,1.041,P49,-47.69,P31,-1.779,P5,3.265,P4,13.62,P2
7602,C94,,50.0%,Max,287.1,P2,1.681,P2,23.94,P8,-1.453,P67,-13.57,P2,1.750,P2,23.96,P8,48.44,P31
7602,C94,,50.0%,Min,-367.6,P3,-2.801,P3,6.192,P5,-4.222,P25,-48.43,P31,-2.834,P3,6.679,P5,13.68,P2
7602,C94,,56.2%,Max,287.1,P2,1.681,P2,27.08,P8,-1.453,P67,-6.911,P2,1.789,P2,27.09,P8,38.44,P31
7602,C94,,56.2%,Min,-367.6,P3,-2.801,P3,8.513,P5,-4.222,P25,-38.44,P31,-2.412,P3,8.874,P5,7.139,P2
7602,C94,,62.5%,Max,287.1,P2,1.681,P2,30.21,P8,-1.453,P67,0.6973,P2,1.828,P2,30.22,P8,27.91,P19
7602,C94,,62.5%,Min,-367.6,P3,-2.801,P3,10.83,P5,-4.222,P25,-27.91,P19,-1.991,P3,11.12,P5,1.948,P4
7602,C94,,68.7%,Max,287.1,P2,1.681,P2,33.34,P8,-1.453,P67,9.259,P2,1.867,P2,33.35,P8,20.35,P3
7602,C94,,68.7%,Min,-367.6,P3,-2.801,P3,13.15,P5,-4.222,P25,-20.29,P3,-1.570,P3,13.39,P5,0.4843,P49
7602,C94,,75.0%,Max,287.1,P2,1.681,P2,36.47,P8,-1.453,P67,18.77,P2,2.130,P4,36.48,P8,18.87,P2
7602,C94,,75.0%,Min,-367.6,P3,-2.801,P3,15.48,P5,-4.222,P25,-13.75,P3,-1.373,P5,15.68,P5,0.05722,P20
7602,C94,,75.0%,Max,277.5,P2,5.063,P2,70.93,P8,-4.544,P60,23.22,P2,3.651,P2,71.10,P8,23.50,P2
7602,C94,,75.0%,Min,-439.9,P3,-11.55,P3,29.55,P55,-11.89,P27,-10.45,P3,-8.009,P3,29.58,P55,0.3691,P42
7602,C94,,81.2%,Max,277.5,P2,5.063,P2,74.06,P8,-4.544,P60,42.66,P25,5.508,P2,74.23,P8,42.69,P25
7602,C94,,81.2%,Min,-439.9,P3,-11.55,P3,31.87,P55,-11.89,P27,3.264,P3,-7.202,P3,31.90,P55,7.907,P3
7602,C94,,87.5%,Max,277.5,P2,5.063,P2,77.20,P8,-4.544,P60,73.31,P25,7.366,P2,77.36,P8,73.32,P25
7602,C94,,87.5%,Min,-439.9,P3,-11.55,P3,34.20,P55,-11.89,P27,17.93,P3,-6.395,P3,34.22,P55,19.04,P3
7602,C94,,93.7%,Max,277.5,P2,5.063,P2,80.33,P8,-4.544,P60,105.2,P25,9.223,P2,80.48,P8,105.3,P25
7602,C94,,93.7%,Min,-439.9,P3,-11.55,P3,36.52,P55,-11.89,P27,33.55,P3,-5.588,P3,36.54,P55,34.01,P3
7602,C94,5968,100.0%,Max,277.5,P2,5.063,P2,83.46,P8,-4.544,P60,138.5,P24,11.08,P2,83.61,P8,138.7,P24
7602,C94,5968,100.0%,Min,-439.9,P3,-11.55,P3,38.84,P55,-11.89,P27,50.12,P3,-4.782,P3,38.86,P55,50.35,P3
7603,C94,5974,0.0%,Max,702.8,P2,6.568,P2,-26.35,P69,12.18,P25,129.3,P6,6.084,P2,82.53,P6,129.4,P6
7603,C94,5974,0.0%,Min,-408.9,P3,-11.75,P3,-82.34,P6,4.333,P69,17.51,P69,-11.32,P3,26.79,P92,18.23,P69
7603,C94,,6.3%,Max,702.8,P2,6.568,P2,-24.47,P69,12.18,P25,102.3,P6,5.666,P2,80.00,P6,102.4,P6
7603,C94,,6.3%,Min,-408.9,P3,-11.75,P3,-79.80,P6,4.333,P69,9.051,P69,-9.171,P3,24.94,P92,9.552,P69
7603,C94,,12.5%,Max,702.8,P2,6.568,P2,-22.59,P69,12.18,P25,76.93,P7,5.248,P2,77.47,P6,76.96,P7
7603,C94,,12.5%,Min,-408.9,P3,-11.75,P3,-77.26,P6,4.333,P69,1.214,P69,-7.026,P3,23.08,P92,1.614,P69
7603,C94,,18.8%,Max,702.8,P2,6.568,P2,-20.71,P69,12.18,P25,52.90,P7,4.830,P2,74.93,P6,52.90,P7
7603,C94,,18.8%,Min,-408.9,P3,-11.75,P3,-74.72,P6,4.333,P69,-5.996,P69,-4.880,P3,21.24,P92,0.7541,P90
7603,C94,,25.0%,Max,702.8,P2,6.568,P2,-18.82,P69,12.18,P25,30.76,P2,4.412,P2,72.40,P6,31.07,P2
7603,C94,,25.0%,Min,-408.9,P3,-11.75,P3,-72.18,P6,4.333,P69,-12.58,P69,-2.921,P69,19.39,P92,1.562,P83
7603,C94,,25.0%,Max,620.4,P2,1.214,P69,-9.022,P69,7.370,P6,27.76,P2,1.551,P2,46.06,P6,27.80,P2
7603,C94,,25.0%,Min,-384.5,P3,-1.855,P3,-46.06,P6,2.721,P93,-13.57,P69,-2.830,P3,9.103,P69,0.6198,P21
7603,C94,,31.3%,Max,620.4,P2,1.214,P69,-7.141,P69,7.370,P6,16.55,P2,1.412,P2,43.53,P6,16.61,P2
7603,C94,,31.3%,Min,-384.5,P3,-1.855,P3,-43.52,P6,2.721,P93,-16.26,P69,-2.475,P3,7.243,P69,0.6253,P31
7603,C94,,37.5%,Max,620.4,P2,1.214,P69,-5.259,P69,7.370,P6,6.192,P73,1.272,P2,40.99,P6,18.76,P21
7603,C94,,37.5%,Min,-384.5,P3,-1.855,P3,-40.98,P6,2.721,P93,-18.76,P21,-2.119,P3,5.398,P69,0.5529,P78
7603,C94,,43.8%,Max,620.4,P2,1.214,P69,-3.378,P69,7.370,P6,-2.337,P72,1.132,P2,38.45,P6,27.13,P21
7603,C94,,43.8%,Min,-384.5,P3,-1.855,P3,-38.44,P6,2.721,P93,-27.13,P21,-1.764,P3,3.589,P69,2.350,P72
7603,C94,,50.0%,Max,620.4,P2,1.214,P69,-1.496,P69,7.370,P6,-10.13,P76,0.9929,P2,35.91,P6,36.50,P33
7603,C94,,50.0%,Min,-384.5,P3,-1.855,P3,-35.90,P6,2.721,P93,-36.49,P33,-1.409,P3,1.822,P92,10.13,P76
7603,C94,,50.0%,Max,565.0,P4,1.467,P2,24.78,P20,-2.918,P69,-10.85,P76,1.420,P2,24.79,P20,36.59,P33
7603,C94,,50.0%,Min,-377.7,P5,-2.207,P3,-3.040,P3,-8.167,P24,-36.58,P33,-2.545,P3,0.7999,P74,10.91,P76
7603,C94,,56.2%,Max,565.0,P4,1.467,P2,27.32,P20,-2.918,P69,-7.284,P2,1.401,P2,27.33,P20,27.99,P33
7603,C94,,56.2%,Min,-377.7,P5,-2.207,P3,-1.159,P3,-8.167,P24,-27.99,P33,-2.279,P3,1.149,P71,7.418,P2
7603,C94,,62.5%,Max,565.0,P4,1.467,P2,29.86,P20,-2.918,P69,-0.2791,P2,1.382,P2,29.87,P20,21.06,P3
7603,C94,,62.5%,Min,-377.7,P5,-2.207,P3,0.7224,P3,-8.167,P24,-20.96,P3,-2.013,P3,1.613,P73,1.410,P2
7603,C94,,68.7%,Max,565.0,P4,1.467,P2,32.40,P20,-2.918,P69,7.353,P2,1.362,P2,32.41,P20,19.33,P3
7603,C94,,68.7%,Min,-377.7,P5,-2.207,P3,2.604,P3,-8.167,P24,-19.25,P3,-1.747,P3,3.102,P73,0.9227,P93
7603,C94,,75.0%,Max,565.0,P4,1.467,P2,34.94,P20,-2.918,P69,15.61,P2,1.343,P2,34.95,P20,16.98,P3
7603,C94,,75.0%,Min,-377.7,P5,-2.207,P3,4.485,P3,-8.167,P24,-16.91,P3,-1.481,P3,4.871,P73,0.3505,P30
7603,C94,,75.0%,Max,563.5,P4,8.437,P4,58.43,P32,-4.214,P69,17.28,P2,3.877,P4,58.43,P32,17.72,P3
7603,C94,,75.0%,Min,-426.8,P5,-11.70,P5,13.67,P73,-12.14,P25,-16.64,P3,-6.202,P5,14.71,P77,1.628,P38
7603,C94,,81.2%,Max,563.5,P4,8.437,P4,60.97,P32,-4.214,P69,30.75,P2,5.270,P4,60.97,P32,31.15,P2
7603,C94,,81.2%,Min,-426.8,P5,-11.70,P5,15.56,P73,-12.14,P25,-10.76,P3,-6.508,P5,16.50,P77,0.4095,P79
7603,C94,,87.5%,Max,563.5,P4,8.437,P4,63.51,P32,-4.214,P69,46.23,P20,6.663,P4,63.51,P32,46.24,P20
7603,C94,,87.5%,Min,-426.8,P5,-11.70,P5,17.44,P73,-12.14,P25,-4.266,P3,-6.814,P5,18.30,P77,1.022,P73
7603,C94,,93.7%,Max,563.5,P4,8.437,P4,66.05,P32,-4.214,P69,67.12,P32,8.056,P4,66.05,P32,67.13,P32
7603,C94,,93.7%,Min,-426.8,P5,-11.70,P5,19.32,P73,-12.14,P25,2.860,P3,-7.120,P5,20.12,P77,7.167,P3
7603,C94,5977,100.0%,Max,563.5,P4,8.437,P4,68.59,P32,-4.214,P69,89.55,P32,9.449,P4,68.59,P32,89.55,P32
7603,C94,5977,100.0%,Min,-426.8,P5,-11.70,P5,21.20,P73,-12.14,P25,10.61,P3,-7.426,P5,21.94,P77,12.57,P3
7604,C94,5971,0.0%,Max,826.7,P2,5.590,P69,-43.14,P50,18.65,P8,267.9,P8,5.585,P69,114.4,P8,267.9,P8
7604,C94,5971,0.0%,Min,-444.6,P3,-6.572,P3,-114.4,P8,6.572,P55,59.56,P50,-7.696,P3,43.21,P50,59.62,P50
7604,C94,,6.2%,Max,826.7,P2,5.590,P69,-41.01,P50,18.65,P8,225.2,P8,4.562,P2,111.5,P8,225.2,P8
7604,C94,,6.2%,Min,-444.6,P3,-6.572,P3,-111.5,P8,6.572,P55,43.65,P50,-6.407,P3,41.08,P50,43.69,P50
7604,C94,,12.5%,Max,826.7,P2,5.590,P69,-38.87,P50,18.65,P8,183.6,P8,3.815,P2,108.6,P8,183.6,P8
7604,C94,,12.5%,Min,-444.6,P3,-6.572,P3,-108.6,P8,6.572,P55,28.55,P50,-5.118,P3,38.95,P50,28.56,P50
7604,C94,,18.7%,Max,826.7,P2,5.590,P69,-36.74,P50,18.65,P8,143.1,P9,3.068,P2,105.7,P8,143.1,P9
7604,C94,,18.7%,Min,-444.6,P3,-6.572,P3,-105.7,P8,6.572,P55,14.26,P50,-3.829,P3,36.82,P50,14.26,P50
7604,C94,,25.0%,Max,826.7,P2,5.590,P69,-34.60,P50,18.65,P8,106.4,P9,2.321,P2,102.8,P8,106.4,P9
7604,C94,,25.0%,Min,-444.6,P3,-6.572,P3,-102.8,P8,6.572,P55,0.7769,P50,-2.868,P69,34.68,P50,1.243,P50
7604,C94,,25.0%,Max,794.3,P2,1.511,P2,-26.96,P2,16.62,P8,98.69,P9,2.297,P2,82.13,P8,98.69,P9
7604,C94,,25.0%,Min,-423.9,P3,-2.078,P3,-82.13,P8,6.050,P55,-1.921,P50,-3.804,P3,27.00,P2,1.537,P75
7604,C94,,31.2%,Max,794.3,P2,1.511,P2,-24.82,P2,16.62,P8,69.99,P9,1.796,P2,79.25,P8,69.99,P9
7604,C94,,31.2%,Min,-423.9,P3,-2.078,P3,-79.25,P8,6.050,P55,-11.88,P74,-3.089,P3,24.87,P2,2.015,P54
7604,C94,,37.5%,Max,794.3,P2,1.511,P2,-22.69,P2,16.62,P8,47.83,P2,1.296,P2,76.36,P8,47.85,P2
7604,C94,,37.5%,Min,-423.9,P3,-2.078,P3,-76.36,P8,6.050,P55,-21.13,P74,-2.374,P3,22.74,P2,0.8532,P42
7604,C94,,43.7%,Max,794.3,P2,1.511,P2,-20.55,P2,16.62,P8,28.65,P2,0.7950,P2,73.48,P8,30.19,P3
7604,C94,,43.7%,Min,-423.9,P3,-2.078,P3,-73.48,P8,6.050,P55,-30.14,P3,-1.659,P3,20.61,P2,0.9181,P67
7604,C94,,50.0%,Max,794.3,P2,1.511,P2,-18.42,P2,16.62,P8,11.94,P92,0.2945,P2,70.60,P8,43.75,P7
7604,C94,,50.0%,Min,-423.9,P3,-2.078,P3,-70.60,P8,6.050,P55,-43.75,P7,-0.9443,P3,18.48,P2,0.1240,P91
7604,C94,,50.0%,Max,783.1,P2,1.631,P2,20.22,P2,-6.971,P69,9.142,P92,2.201,P2,20.28,P2,47.95,P7
7604,C94,,50.0%,Min,-421.3,P3,-2.346,P3,-9.597,P3,-18.94,P25,-47.92,P7,-3.683,P3,0.5037,P88,1.176,P90
7604,C94,,56.2%,Max,783.1,P2,1.631,P2,22.35,P2,-6.971,P69,8.450,P92,1.754,P2,22.41,P2,40.61,P7
7604,C94,,56.2%,Min,-421.3,P3,-2.346,P3,-7.462,P3,-18.94,P25,-40.59,P7,-2.965,P3,1.079,P93,0.5978,P90
7604,C94,,62.5%,Max,783.1,P2,1.631,P2,24.99,P14,-6.971,P69,8.976,P2,1.307,P2,25.00,P14,32.19,P7
7604,C94,,62.5%,Min,-421.3,P3,-2.346,P3,-5.326,P3,-18.94,P25,-32.18,P7,-2.248,P3,1.599,P92,0.2340,P91
7604,C94,,68.7%,Max,783.1,P2,1.631,P2,27.88,P14,-6.971,P69,11.43,P2,0.8597,P2,27.89,P14,25.60,P3
7604,C94,,68.7%,Min,-421.3,P3,-2.346,P3,-3.191,P3,-18.94,P25,-25.55,P3,-1.531,P3,1.973,P5,0.1006,P83
7604,C94,,75.0%,Max,783.1,P2,1.631,P2,30.76,P14,-6.971,P69,14.69,P2,0.4162,P4,30.77,P14,19.17,P3
7604,C94,,75.0%,Min,-421.3,P3,-2.346,P3,-1.056,P3,-18.94,P25,-19.15,P3,-0.8170,P5,2.573,P3,0.5442,P56
7604,C94,,75.0%,Max,782.5,P2,8.374,P4,54.21,P26,-7.322,P69,17.29,P2,5.003,P4,54.22,P26,18.35,P3
7604,C94,,75.0%,Min,-430.1,P3,-8.817,P5,10.27,P3,-20.17,P25,-17.38,P3,-6.541,P5,12.43,P3,0.2315,P31
7604,C94,,81.3%,Max,782.5,P2,8.374,P4,57.10,P26,-7.322,P69,30.84,P2,5.521,P4,57.11,P26,31.19,P2
7604,C94,,81.3%,Min,-430.1,P3,-8.817,P5,12.41,P3,-20.17,P25,-11.33,P3,-6.891,P5,14.25,P3,1.057,P75
7604,C94,,87.5%,Max,782.5,P2,8.374,P4,59.98,P26,-7.322,P69,45.20,P2,6.039,P4,59.99,P26,45.47,P2
7604,C94,,87.5%,Min,-430.1,P3,-8.817,P5,14.54,P3,-20.17,P25,-4.479,P3,-7.241,P5,16.14,P3,7.595,P3
7604,C94,,93.8%,Max,782.5,P2,8.374,P4,62.86,P26,-7.322,P69,66.68,P33,6.556,P4,62.87,P26,66.69,P33
7604,C94,,93.8%,Min,-430.1,P3,-8.817,P5,16.68,P3,-20.17,P25,3.181,P3,-7.591,P5,18.09,P3,7.018,P3
7604,C94,5974,100.0%,Max,782.5,P2,8.374,P4,65.74,P26,-7.322,P69,89.87,P31,7.074,P4,65.75,P26,89.89,P31
7604,C94,5974,100.0%,Min,-430.1,P3,-8.817,P5,18.81,P3,-20.17,P25,11.65,P3,-7.941,P5,20.07,P3,13.28,P3
7791,C94,7363,0.0%,Max,487.7,P2,11.54,P2,13.70,P2,13.46,P31,167.5,P2,9.643,P2,89.67,P21,167.8,P2
7791,C94,7363,0.0%,Min,-837.2,P3,-3.206,P3,-89.48,P21,4.623,P49,-127.5,P3,-1.902,P3,0.7382,P70,1.083,P59
7791,C94,,6.3%,Max,487.7,P2,11.54,P2,15.88,P2,13.46,P31,137.2,P2,8.037,P2,86.73,P21,137.5,P2
7791,C94,,6.3%,Min,-837.2,P3,-3.206,P3,-86.53,P21,4.623,P49,-122.0,P3,-3.516,P3,0.9920,P51,3.289,P62
7791,C94,,12.5%,Max,487.7,P2,11.54,P2,18.06,P2,13.46,P31,107.8,P2,6.432,P2,83.79,P21,115.7,P3
7791,C94,,12.5%,Min,-837.2,P3,-3.206,P3,-83.59,P21,4.623,P49,-115.5,P3,-5.131,P3,2.398,P50,1.005,P42
7791,C94,,18.8%,Max,487.7,P2,11.54,P2,20.25,P2,13.46,P31,79.17,P2,4.826,P2,80.85,P21,108.5,P3
7791,C94,,18.8%,Min,-837.2,P3,-3.206,P3,-80.64,P21,4.623,P49,-108.3,P3,-6.745,P3,1.620,P79,0.6534,P83
7791,C94,,25.0%,Max,487.7,P2,11.54,P2,22.43,P2,13.46,P31,51.40,P2,3.221,P2,77.91,P21,100.5,P3
7791,C94,,25.0%,Min,-837.2,P3,-3.206,P3,-77.69,P21,4.623,P49,-100.2,P3,-8.360,P3,0.7501,P78,2.025,P66
7791,C94,,25.0%,Max,526.2,P2,1.525,P2,40.29,P2,5.116,P22,44.07,P2,1.101,P2,55.19,P3,97.71,P3
7791,C94,,25.0%,Min,-832.1,P3,-1.144,P3,-55.18,P3,1.212,P3,-97.70,P3,-0.5632,P3,0.3112,P14,0.4778,P21
7791,C94,,31.2%,Max,526.2,P2,1.525,P2,42.47,P2,5.116,P22,26.61,P2,1.342,P2,53.01,P3,85.16,P3
7791,C94,,31.2%,Min,-832.1,P3,-1.144,P3,-52.99,P3,1.212,P3,-85.15,P3,-0.9510,P3,0.2043,P25,1.749,P44
7791,C94,,37.5%,Max,526.2,P2,1.525,P2,44.66,P2,5.116,P22,9.988,P2,1.582,P2,50.82,P3,71.77,P3
7791,C94,,37.5%,Min,-832.1,P3,-1.144,P3,-50.81,P3,1.212,P3,-71.75,P3,-1.339,P3,0.5610,P6,1.878,P4
7791,C94,,43.7%,Max,526.2,P2,1.525,P2,46.84,P2,5.116,P22,-5.789,P2,1.823,P2,48.64,P3,60.03,P25
7791,C94,,43.7%,Min,-832.1,P3,-1.144,P3,-48.63,P3,1.212,P3,-60.03,P25,-1.727,P3,0.4414,P80,6.069,P2
7791,C94,,50.0%,Max,526.2,P2,1.525,P2,49.02,P2,5.116,P22,-15.37,P55,2.064,P2,49.05,P2,65.52,P32
7791,C94,,50.0%,Min,-832.1,P3,-1.144,P3,-46.44,P3,1.212,P3,-65.51,P32,-2.114,P3,0.5185,P19,15.37,P55
7791,C94,,50.0%,Max,542.3,P2,1.929,P4,72.59,P2,-2.434,P58,-13.47,P55,1.879,P2,72.61,P2,66.53,P32
7791,C94,,50.0%,Min,-834.5,P3,-2.518,P5,-21.78,P3,-8.079,P33,-66.53,P32,-1.948,P3,1.475,P56,13.47,P55
7791,C94,,56.2%,Max,542.3,P2,1.929,P4,74.77,P2,-2.434,P58,9.448,P2,2.001,P2,74.79,P2,61.44,P20
7791,C94,,56.2%,Min,-834.5,P3,-2.518,P5,-19.60,P3,-8.079,P33,-61.44,P20,-1.843,P3,3.075,P57,0.7548,P55
7791,C94,,62.5%,Max,542.3,P2,1.929,P4,76.95,P2,-2.434,P58,37.67,P2,2.123,P2,76.97,P2,57.56,P68
7791,C94,,62.5%,Min,-834.5,P3,-2.518,P5,-17.42,P3,-8.079,P33,-57.56,P68,-1.737,P3,5.119,P57,0.4878,P42
7791,C94,,68.7%,Max,542.3,P2,1.929,P4,79.14,P2,-2.434,P58,66.74,P2,2.338,P4,79.16,P2,66.78,P2
7791,C94,,68.7%,Min,-834.5,P3,-2.518,P5,-15.23,P3,-8.079,P33,-63.78,P68,-1.724,P5,3.533,P5,0.9054,P1
7791,C94,,75.0%,Max,542.3,P2,1.929,P4,81.32,P2,-2.434,P58,96.65,P2,2.609,P4,81.34,P2,96.68,P2
7791,C94,,75.0%,Min,-834.5,P3,-2.518,P5,-13.05,P3,-8.079,P33,-69.17,P68,-1.795,P69,2.187,P44,0.7166,P8
7791,C94,,75.0%,Max,558.1,P2,13.13,P69,101.8,P13,-3.714,P60,103.3,P2,8.995,P2,103.3,P13,103.7,P2
7791,C94,,75.0%,Min,-875.6,P3,-18.14,P12,-2.747,P69,-12.59,P33,-70.14,P68,-13.38,P3,7.813,P92,2.674,P66
7791,C94,,81.2%,Max,558.1,P2,13.13,P69,104.7,P13,-3.714,P60,139.7,P2,10.51,P2,106.2,P13,140.1,P2
7791,C94,,81.2%,Min,-875.6,P3,-18.14,P12,-0.5636,P69,-12.59,P33,-70.71,P68,-12.08,P3,8.929,P92,2.861,P91
7791,C94,,87.5%,Max,558.1,P2,13.13,P69,107.7,P13,-3.714,P60,176.9,P2,12.02,P2,109.1,P13,177.3,P2
7791,C94,,87.5%,Min,-875.6,P3,-18.14,P12,1.620,P69,-12.59,P33,-70.49,P69,-10.78,P3,10.39,P92,1.811,P20
7791,C94,,93.7%,Max,558.1,P2,13.13,P69,110.6,P13,-3.714,P60,215.0,P2,13.54,P4,112.0,P13,215.4,P2
7791,C94,,93.7%,Min,-875.6,P3,-18.14,P12,3.803,P69,-12.59,P33,-69.45,P69,-9.487,P5,12.07,P92,5.394,P56
7791,C94,7373,100.0%,Max,558.1,P2,13.13,P69,113.6,P13,-3.714,P60,253.9,P2,16.78,P12,114.9,P13,254.3,P2
7791,C94,7373,100.0%,Min,-875.6,P3,-18.14,P12,5.987,P69,-12.59,P33,-67.55,P69,-11.86,P69,13.89,P92,15.24,P56
7794,C94,7447,0.0%,Max,368.2,P4,14.66,P55,-0.1976,P2,-3.226,P72,162.9,P2,14.72,P55,88.11,P9,163.1,P2
7794,C94,7447,0.0%,Min,-498.5,P5,-21.28,P3,-86.08,P9,-9.579,P33,-93.23,P3,-19.61,P3,7.211,P4,8.362,P42
7794,C94,,6.3%,Max,368.2,P4,14.66,P55,1.994,P2,-3.226,P72,133.7,P2,9.673,P2,85.22,P9,134.0,P2
7794,C94,,6.3%,Min,-498.5,P5,-21.28,P3,-83.13,P9,-9.579,P33,-92.99,P3,-16.01,P3,6.219,P4,2.411,P6
7794,C94,,12.5%,Max,368.2,P4,14.66,P55,4.185,P2,-3.226,P72,105.3,P2,11.02,P2,82.34,P9,105.9,P2
7794,C94,,12.5%,Min,-498.5,P5,-21.28,P3,-80.17,P9,-9.579,P33,-91.91,P3,-12.40,P3,5.820,P76,0.9117,P40
7794,C94,,18.8%,Max,368.2,P4,14.66,P55,6.376,P2,-3.226,P72,77.76,P2,12.37,P2,79.46,P9,90.40,P3
7794,C94,,18.8%,Min,-498.5,P5,-21.28,P3,-77.21,P9,-9.579,P33,-89.97,P3,-8.799,P3,3.631,P76,1.430,P35
7794,C94,,25.0%,Max,368.2,P4,14.66,P55,8.567,P2,-3.226,P72,51.09,P2,13.72,P2,76.59,P9,87.33,P3
7794,C94,,25.0%,Min,-498.5,P5,-21.28,P3,-74.25,P9,-9.579,P33,-87.18,P3,-8.025,P55,1.448,P76,4.766,P68
7794,C94,,25.0%,Max,301.9,P4,1.258,P2,23.01,P2,-1.943,P67,46.67,P2,1.385,P55,55.44,P3,85.37,P3
7794,C94,,25.0%,Min,-518.0,P5,-1.749,P3,-55.42,P3,-5.579,P25,-85.35,P3,-2.060,P3,0.4559,P48,2.737,P68
7794,C94,,31.2%,Max,301.9,P4,1.258,P2,25.20,P2,-1.943,P67,27.12,P2,1.224,P2,53.25,P3,77.55,P3
7794,C94,,31.2%,Min,-518.0,P5,-1.749,P3,-53.22,P3,-5.579,P25,-77.52,P3,-1.987,P3,0.6915,P51,0.5317,P58
7794,C94,,37.5%,Max,301.9,P4,1.258,P2,27.39,P2,-1.943,P67,8.426,P2,1.342,P2,51.06,P3,75.87,P7
7794,C94,,37.5%,Min,-518.0,P5,-1.749,P3,-51.03,P3,-5.579,P25,-75.87,P7,-1.915,P3,0.8570,P47,0.3680,P82
7794,C94,,43.7%,Max,301.9,P4,1.258,P2,29.58,P2,-1.943,P67,-8.156,P4,1.460,P2,48.87,P3,74.96,P7
7794,C94,,43.7%,Min,-518.0,P5,-1.749,P3,-48.84,P3,-5.579,P25,-74.96,P7,-1.842,P3,0.8074,P42,8.255,P4
7794,C94,,50.0%,Max,301.9,P4,1.258,P2,31.77,P2,-1.943,P67,-22.26,P85,1.578,P2,46.68,P3,75.95,P6
7794,C94,,50.0%,Min,-518.0,P5,-1.749,P3,-46.65,P3,-5.579,P25,-75.95,P6,-1.770,P3,1.669,P42,22.26,P85
7794,C94,,50.0%,Max,230.8,P4,2.484,P2,54.34,P2,4.830,P31,-23.59,P85,1.824,P2,54.40,P2,74.17,P6
7794,C94,,50.0%,Min,-563.9,P5,-0.7308,P3,-24.20,P3,0.7460,P49,-74.17,P6,-1.470,P3,0.9926,P62,23.60,P85
7794,C94,,56.2%,Max,230.8,P4,2.484,P2,56.54,P2,4.830,P31,-7.439,P4,1.408,P2,56.59,P2,59.66,P32
7794,C94,,56.2%,Min,-563.9,P5,-0.7308,P3,-22.01,P3,0.7460,P49,-59.66,P32,-1.734,P3,0.1929,P58,7.559,P4
7794,C94,,62.5%,Max,230.8,P4,2.484,P2,58.73,P2,4.830,P31,11.66,P2,0.9914,P2,58.78,P2,59.41,P3
7794,C94,,62.5%,Min,-563.9,P5,-0.7308,P3,-19.82,P3,0.7460,P49,-59.38,P3,-1.997,P3,0.4572,P91,8.497,P77
7794,C94,,68.7%,Max,230.8,P4,2.484,P2,60.92,P2,4.830,P31,32.14,P2,0.5748,P2,60.97,P2,63.95,P3
7794,C94,,68.7%,Min,-563.9,P5,-0.7308,P3,-17.63,P3,0.7460,P49,-63.91,P3,-2.261,P3,1.624,P88,1.410,P54
7794,C94,,75.0%,Max,230.8,P4,2.484,P2,63.11,P2,4.830,P31,53.47,P2,0.5508,P67,63.16,P2,67.65,P3
7794,C94,,75.0%,Min,-563.9,P5,-0.7308,P3,-15.44,P3,0.7460,P49,-67.60,P3,-2.628,P13,0.5384,P92,0.8849,P42
7794,C94,,75.0%,Max,185.2,P67,14.92,P2,86.77,P7,9.632,P31,58.44,P2,10.92,P2,87.42,P7,68.55,P3
7794,C94,,75.0%,Min,-647.9,P5,-5.009,P3,-0.6379,P3,2.098,P49,-68.43,P3,-4.065,P3,4.727,P5,2.605,P19
7794,C94,,81.2%,Max,185.2,P67,14.92,P2,89.72,P7,9.632,P31,88.36,P2,9.141,P2,90.36,P7,88.83,P2
7794,C94,,81.2%,Min,-647.9,P5,-5.009,P3,1.553,P3,2.098,P49,-68.11,P3,-6.130,P3,5.245,P3,2.053,P67
7794,C94,,87.5%,Max,185.2,P67,14.92,P2,92.68,P7,9.632,P31,119.1,P2,7.362,P2,93.30,P7,119.4,P2
7794,C94,,87.5%,Min,-647.9,P5,-5.009,P3,3.745,P3,2.098,P49,-66.94,P3,-8.195,P3,6.254,P3,0.1477,P60
7794,C94,,93.7%,Max,185.2,P67,14.92,P2,95.64,P7,9.632,P31,150.7,P2,5.583,P2,96.24,P7,150.8,P2
7794,C94,,93.7%,Min,-647.9,P5,-5.009,P3,5.936,P3,2.098,P49,-64.93,P3,-10.26,P3,7.767,P3,0.2806,P69
7794,C94,7445,100.0%,Max,185.2,P67,14.92,P2,98.60,P7,9.632,P31,183.2,P2,3.804,P2,99.18,P7,183.2,P2
7794,C94,7445,100.0%,Min,-647.9,P5,-5.009,P3,8.127,P3,2.098,P49,-62.06,P3,-12.32,P3,9.547,P3,0.6606,P90
7795,C94,4851,0.0%,Max,591.9,P2,39.42,P2,-82.46,P55,9.117,P2,393.4,P8,36.15,P2,229.0,P8,393.4,P8
7795,C94,4851,0.0%,Min,-1037.,P3,-37.21,P3,-229.0,P8,-3.249,P3,55.29,P5,-31.99,P3,82.98,P55,59.59,P5
7795,C94,,5.0%,Max,591.9,P2,39.42,P2,-79.22,P55,9.117,P2,315.2,P8,32.01,P2,224.7,P8,315.2,P8
7795,C94,,5.0%,Min,-1037.,P3,-37.21,P3,-224.6,P8,-3.249,P3,25.86,P5,-28.61,P3,79.75,P55,32.78,P5
7795,C94,,10.0%,Max,591.9,P2,39.42,P2,-75.97,P55,9.117,P2,238.5,P8,27.88,P2,220.3,P8,238.5,P8
7795,C94,,10.0%,Min,-1037.,P3,-37.21,P3,-220.2,P8,-3.249,P3,-2.441,P5,-25.24,P3,76.53,P55,18.19,P5
7795,C94,,15.0%,Max,591.9,P2,39.42,P2,-72.72,P55,9.117,P2,181.5,P4,23.75,P2,215.9,P8,182.4,P4
7795,C94,,15.0%,Min,-1037.,P3,-37.21,P3,-215.8,P8,-3.249,P3,-29.63,P5,-21.87,P3,73.31,P55,5.454,P55
7795,C94,,20.0%,Max,591.9,P2,39.42,P2,-69.48,P55,9.117,P2,128.9,P4,19.61,P2,211.5,P8,129.7,P4
7795,C94,,20.0%,Min,-1037.,P3,-37.21,P3,-211.5,P8,-3.249,P3,-55.69,P5,-18.50,P3,70.09,P55,2.384,P56
7795,C94,,20.0%,Max,693.4,P2,15.76,P2,-78.47,P55,-6.020,P48,115.4,P4,8.996,P2,229.6,P8,115.7,P4
7795,C94,,20.0%,Min,-1115.,P3,-20.33,P3,-229.4,P8,-23.96,P31,-65.58,P5,-11.99,P3,78.96,P55,1.608,P67
7795,C94,,25.0%,Max,693.4,P2,15.76,P2,-75.23,P55,-6.020,P48,63.34,P4,10.88,P2,225.2,P8,97.72,P5
7795,C94,,25.0%,Min,-1115.,P3,-20.33,P3,-225.0,P8,-23.96,P31,-97.17,P5,-12.30,P3,75.73,P55,2.301,P59
7795,C94,,29.9%,Max,693.4,P2,15.76,P2,-71.98,P55,-6.020,P48,12.39,P4,12.77,P2,220.9,P8,128.1,P5
7795,C94,,29.9%,Min,-1115.,P3,-20.33,P3,-220.7,P8,-23.96,P31,-127.6,P5,-12.61,P3,72.51,P55,12.91,P2
7795,C94,,34.9%,Max,693.4,P2,15.76,P2,-68.74,P55,-6.020,P48,-37.45,P4,14.65,P2,216.5,P8,178.9,P31
7795,C94,,34.9%,Min,-1115.,P3,-20.33,P3,-216.3,P8,-23.96,P31,-178.9,P31,-12.92,P3,69.29,P55,39.31,P4
7795,C94,,39.9%,Max,693.4,P2,15.76,P2,-65.49,P55,-6.020,P48,-86.17,P4,16.54,P2,212.1,P8,245.5,P31
7795,C94,,39.9%,Min,-1115.,P3,-20.33,P3,-211.9,P8,-23.96,P31,-245.5,P31,-13.23,P3,66.07,P55,87.22,P4
7795,C94,,39.9%,Max,581.2,P2,9.149,P4,156.6,P31,-2.055,P2,-224.1,P82,8.249,P4,156.6,P31,553.2,P6
7795,C94,,39.9%,Min,-918.8,P3,-5.695,P5,34.00,P5,-13.62,P6,-553.2,P6,-3.988,P5,34.47,P5,224.1,P82
7795,C94,,44.9%,Max,581.2,P2,9.149,P4,161.0,P31,-2.055,P2,-207.6,P82,7.254,P2,161.0,P31,499.1,P6
7795,C94,,44.9%,Min,-918.8,P3,-5.695,P5,37.25,P5,-13.62,P6,-499.1,P6,-4.187,P3,37.68,P5,207.6,P82
7795,C94,,49.9%,Max,581.2,P2,9.149,P4,165.4,P31,-2.055,P2,-188.1,P66,6.283,P2,165.4,P31,443.5,P6
7795,C94,,49.9%,Min,-918.8,P3,-5.695,P5,40.51,P5,-13.62,P6,-443.5,P6,-4.409,P3,40.91,P5,188.1,P66
7795,C94,,54.9%,Max,581.2,P2,9.149,P4,169.8,P31,-2.055,P2,-161.9,P67,5.311,P2,169.8,P31,389.7,P24
7795,C94,,54.9%,Min,-918.8,P3,-5.695,P5,43.76,P5,-13.62,P6,-389.7,P24,-4.632,P3,44.13,P5,161.9,P67
7795,C94,,60.0%,Max,581.2,P2,9.149,P4,174.1,P31,-2.055,P2,-129.2,P55,4.340,P2,174.2,P31,335.7,P24
7795,C94,,60.0%,Min,-918.8,P3,-5.695,P5,47.02,P5,-13.62,P6,-335.7,P24,-4.855,P3,47.36,P5,129.2,P55
7795,C94,,60.0%,Max,617.9,P2,1.828,P4,233.7,P31,7.858,P19,-122.6,P55,3.703,P2,233.7,P31,323.6,P24
7795,C94,,60.0%,Min,-1003.,P3,-2.612,P5,72.60,P5,-3.371,P3,-323.6,P24,-3.861,P3,72.65,P5,122.6,P55
7795,C94,,65.0%,Max,617.9,P2,1.828,P4,238.1,P31,7.858,P19,-78.84,P55,4.552,P2,238.1,P31,247.7,P24
7795,C94,,65.0%,Min,-1003.,P3,-2.612,P5,75.86,P5,-3.371,P3,-247.7,P24,-4.439,P3,75.90,P5,78.86,P55
7795,C94,,70.0%,Max,617.9,P2,1.828,P4,242.5,P31,7.858,P19,-26.04,P2,5.400,P2,242.5,P31,170.4,P24
7795,C94,,70.0%,Min,-1003.,P3,-2.612,P5,79.11,P5,-3.371,P3,-170.4,P24,-5.017,P3,79.16,P5,26.59,P2
7795,C94,,75.0%,Max,617.9,P2,1.828,P4,246.8,P31,7.858,P19,28.96,P2,6.249,P2,246.8,P31,119.2,P3
7795,C94,,75.0%,Min,-1003.,P3,-2.612,P5,82.37,P5,-3.371,P3,-119.1,P3,-5.594,P3,82.41,P5,1.892,P43
7795,C94,,80.0%,Max,617.9,P2,1.828,P4,251.2,P31,7.858,P19,85.09,P2,7.098,P2,251.2,P31,87.30,P3
7795,C94,,80.0%,Min,-1003.,P3,-2.612,P5,85.62,P5,-3.371,P3,-87.08,P3,-6.172,P3,85.66,P5,0.7930,P91
7795,C94,,80.0%,Max,607.4,P2,32.33,P2,285.1,P31,25.45,P31,91.68,P2,18.43,P2,285.1,P31,93.51,P2
7795,C94,,80.0%,Min,-1058.,P3,-21.76,P3,101.2,P5,4.082,P3,-83.73,P3,-14.67,P3,102.1,P5,0.3259,P53
7795,C94,,85.0%,Max,607.4,P2,32.33,P2,289.5,P31,25.45,P31,156.2,P2,17.80,P2,289.5,P31,157.2,P2
7795,C94,,85.0%,Min,-1058.,P3,-21.76,P3,104.4,P5,4.082,P3,-46.30,P3,-17.71,P3,105.3,P5,3.539,P61
7795,C94,,90.0%,Max,607.4,P2,32.33,P2,293.9,P31,25.45,P31,245.5,P19,17.18,P2,293.9,P31,245.5,P19
7795,C94,,90.0%,Min,-1058.,P3,-21.76,P3,107.7,P5,4.082,P3,-7.756,P3,-20.74,P3,108.5,P5,16.43,P5
7795,C94,,95.0%,Max,607.4,P2,32.33,P2,298.3,P31,25.45,P31,342.7,P31,16.56,P2,298.3,P31,342.8,P31
7795,C94,,95.0%,Min,-1058.,P3,-21.76,P3,110.9,P5,4.082,P3,31.92,P3,-23.78,P3,111.8,P5,36.87,P5
7795,C94,7449,100.0%,Max,607.4,P2,32.33,P2,302.7,P31,25.45,P31,446.6,P31,15.94,P2,302.7,P31,446.7,P31
7795,C94,7449,100.0%,Min,-1058.,P3,-21.76,P3,114.2,P5,4.082,P3,72.14,P5,-26.81,P3,115.0,P5,74.78,P5
8022,C94,7132,0.0%,Max,38.21,P2,1.571,P2,73.59,P6,-2.398,P4,-0.5514,P2,1.404,P2,73.60,P6,5.885,P6
8022,C94,7132,0.0%,Min,-34.32,P3,-2.856,P3,28.10,P3,-8.267,P6,-5.678,P6,-3.119,P3,28.25,P3,1.075,P4
8022,C94,,8.3%,Max,38.21,P2,1.571,P2,78.77,P6,-2.398,P4,25.40,P6,1.460,P2,78.78,P6,25.42,P6
8022,C94,,8.3%,Min,-34.32,P3,-2.856,P3,31.95,P3,-8.267,P6,9.047,P3,-2.650,P3,32.07,P3,9.427,P3
8022,C94,,16.7%,Max,38.21,P2,1.571,P2,83.96,P6,-2.398,P4,58.59,P6,1.516,P2,83.97,P6,58.59,P6
8022,C94,,16.7%,Min,-34.32,P3,-2.856,P3,35.79,P3,-8.267,P6,23.01,P3,-2.182,P3,35.90,P3,23.11,P3
8022,C94,,25.0%,Max,38.21,P2,1.571,P2,89.14,P6,-2.398,P4,93.90,P6,1.572,P2,89.15,P6,93.90,P6
8022,C94,,25.0%,Min,-34.32,P3,-2.856,P3,39.63,P3,-8.267,P6,38.53,P3,-1.714,P3,39.73,P3,38.57,P3
8022,C94,,33.3%,Max,38.21,P2,1.571,P2,94.33,P6,-2.398,P4,131.3,P6,1.628,P2,94.33,P6,131.3,P6
8022,C94,,33.3%,Min,-34.32,P3,-2.856,P3,43.47,P3,-8.267,P6,55.63,P3,-1.246,P3,43.56,P3,55.64,P3
8022,C94,,33.3%,Max,54.02,P2,4.301,P4,182.5,P6,-7.443,P2,152.0,P6,4.036,P4,182.5,P6,152.0,P6
8022,C94,,33.3%,Min,-42.83,P3,-6.883,P5,74.04,P3,-20.14,P6,64.51,P3,-6.415,P5,74.35,P3,64.79,P3
8022,C94,,41.7%,Max,54.02,P2,4.301,P4,187.7,P6,-7.443,P2,227.5,P6,4.240,P4,187.7,P6,227.5,P6
8022,C94,,41.7%,Min,-42.83,P3,-6.883,P5,77.88,P3,-20.14,P6,95.54,P3,-5.565,P5,78.18,P3,95.69,P3
8022,C94,,50.0%,Max,54.02,P2,4.301,P4,192.9,P6,-7.443,P2,305.1,P6,4.444,P4,192.9,P6,305.1,P6
8022,C94,,50.0%,Min,-42.83,P3,-6.883,P5,81.72,P3,-20.14,P6,128.1,P3,-4.716,P5,82.00,P3,128.2,P3
8022,C94,,58.3%,Max,54.02,P2,4.301,P4,198.1,P6,-7.443,P2,384.9,P6,4.733,P2,198.1,P6,384.9,P6
8022,C94,,58.3%,Min,-42.83,P3,-6.883,P5,85.56,P3,-20.14,P6,162.3,P3,-3.953,P3,85.83,P3,162.3,P3
8022,C94,,66.7%,Max,54.02,P2,4.301,P4,203.2,P6,-7.443,P2,466.7,P6,5.094,P2,203.3,P6,466.7,P6
8022,C94,,66.7%,Min,-42.83,P3,-6.883,P5,89.40,P3,-20.14,P6,198.0,P3,-3.260,P3,89.66,P3,198.0,P3
8022,C94,,66.7%,Max,74.49,P4,19.55,P4,360.2,P6,8.130,P22,495.8,P6,13.34,P4,360.3,P6,495.8,P6
8022,C94,,66.7%,Min,-35.54,P5,-28.35,P5,153.8,P84,1.539,P5,210.6,P3,-19.11,P5,153.8,P84,211.2,P3
8022,C94,,75.0%,Max,74.49,P4,19.55,P4,365.4,P6,8.130,P22,643.8,P6,16.80,P4,365.5,P6,643.8,P6
8022,C94,,75.0%,Min,-35.54,P5,-28.35,P5,157.7,P84,1.539,P5,275.7,P3,-18.98,P5,157.7,P84,276.2,P3
8022,C94,,83.3%,Max,74.49,P4,19.55,P4,370.6,P6,8.130,P22,793.9,P6,20.26,P4,370.7,P6,793.9,P6
8022,C94,,83.3%,Min,-35.54,P5,-28.35,P5,161.5,P84,1.539,P5,342.4,P3,-18.85,P5,161.5,P84,342.8,P3
8022,C94,,91.7%,Max,74.49,P4,19.55,P4,375.8,P6,8.130,P22,946.2,P6,23.72,P4,375.9,P6,946.2,P6
8022,C94,,91.7%,Min,-35.54,P5,-28.35,P5,165.4,P84,1.539,P5,410.7,P3,-18.72,P5,165.4,P84,411.0,P3
8022,C94,6153,100.0%,Max,74.49,P4,19.55,P4,381.0,P6,8.130,P22,1101.,P6,27.19,P4,381.1,P6,1101.,P6
8022,C94,6153,100.0%,Min,-35.54,P5,-28.35,P5,169.2,P84,1.539,P5,480.6,P3,-18.59,P5,169.2,P84,480.8,P3
8023,C94,7133,0.0%,Max,103.6,P2,0.8957,P2,-29.40,P2,6.467,P6,139.0,P24,0.8659,P4,77.23,P24,139.0,P24
8023,C94,7133,0.0%,Min,-133.8,P3,-0.7431,P3,-77.23,P24,2.370,P60,51.63,P3,-0.6560,P5,29.41,P2,51.64,P3
8023,C94,,8.3%,Max,103.6,P2,0.8957,P2,-28.05,P2,6.467,P6,114.6,P24,0.7223,P2,75.40,P24,114.6,P24
8023,C94,,8.3%,Min,-133.8,P3,-0.7431,P3,-75.40,P24,2.370,P60,42.30,P3,-0.5611,P3,28.06,P2,42.30,P3
8023,C94,,16.7%,Max,103.6,P2,0.8957,P2,-26.69,P2,6.467,P6,90.88,P24,0.5870,P2,73.58,P24,90.88,P24
8023,C94,,16.7%,Min,-133.8,P3,-0.7431,P3,-73.58,P24,2.370,P60,33.40,P3,-0.4745,P3,26.71,P2,33.40,P3
8023,C94,,25.0%,Max,103.6,P2,0.8957,P2,-25.34,P2,6.467,P6,67.69,P24,0.4518,P2,71.75,P24,67.69,P24
8023,C94,,25.0%,Min,-133.8,P3,-0.7431,P3,-71.75,P24,2.370,P60,24.68,P5,-0.3880,P3,25.36,P2,24.68,P5
8023,C94,,33.3%,Max,103.6,P2,0.8957,P2,-23.99,P2,6.467,P6,45.09,P24,0.3166,P2,69.93,P24,45.09,P24
8023,C94,,33.3%,Min,-133.8,P3,-0.7431,P3,-69.93,P24,2.370,P60,15.52,P5,-0.3014,P3,24.01,P2,15.52,P5
8023,C94,,33.3%,Max,112.0,P2,0.4855,P2,-14.04,P4,-0.1011,P2,39.52,P24,0.3786,P2,38.70,P24,39.52,P24
8023,C94,,33.3%,Min,-138.2,P3,-0.4626,P3,-38.70,P24,-1.011,P24,13.12,P5,-0.2778,P3,14.04,P4,13.12,P5
8023,C94,,41.7%,Max,112.0,P2,0.4855,P2,-12.69,P4,-0.1011,P2,27.46,P24,0.3719,P2,36.87,P24,27.46,P24
8023,C94,,41.7%,Min,-138.2,P3,-0.4626,P3,-36.87,P24,-1.011,P24,7.536,P5,-0.2784,P3,12.69,P4,7.539,P5
8023,C94,,50.0%,Max,112.0,P2,0.4855,P2,-11.34,P4,-0.1011,P2,16.18,P22,0.3652,P2,35.05,P24,16.18,P22
8023,C94,,50.0%,Min,-138.2,P3,-0.4626,P3,-35.05,P24,-1.011,P24,2.382,P5,-0.2789,P3,11.34,P4,2.390,P5
8023,C94,,58.3%,Max,112.0,P2,0.4855,P2,-9.984,P4,-0.1011,P2,7.513,P2,0.3585,P2,33.22,P24,7.522,P2
8023,C94,,58.3%,Min,-138.2,P3,-0.4626,P3,-33.22,P24,-1.011,P24,-2.892,P3,-0.2795,P3,9.991,P4,1.112,P81
8023,C94,,66.7%,Max,112.0,P2,0.4855,P2,-8.633,P4,-0.1011,P2,2.011,P2,0.3517,P2,31.40,P24,7.930,P3
8023,C94,,66.7%,Min,-138.2,P3,-0.4626,P3,-31.40,P24,-1.011,P24,-7.925,P3,-0.2801,P3,8.640,P4,0.7489,P58
8023,C94,,66.7%,Max,119.8,P2,1.165,P2,2.398,P4,-2.196,P2,1.273,P2,0.5809,P2,11.16,P5,9.278,P3
8023,C94,,66.7%,Min,-140.8,P3,-1.062,P3,-11.12,P5,-6.438,P24,-9.266,P3,-0.4693,P3,1.200,P2,0.5173,P4
8023,C94,,75.0%,Max,119.8,P2,1.165,P2,3.750,P4,-2.196,P2,1.013,P2,0.6597,P2,9.813,P5,11.37,P3
8023,C94,,75.0%,Min,-140.8,P3,-1.062,P3,-9.770,P5,-6.438,P24,-11.36,P3,-0.5811,P3,1.577,P2,0.7695,P4
8023,C94,,83.3%,Max,119.8,P2,1.165,P2,5.102,P4,-2.196,P2,1.523,P4,0.7386,P2,8.468,P5,13.37,P5
8023,C94,,83.3%,Min,-140.8,P3,-1.062,P3,-8.419,P5,-6.438,P24,-13.36,P5,-0.6929,P3,0.6255,P55,1.396,P2
8023,C94,,91.7%,Max,119.8,P2,1.165,P2,6.454,P4,-2.196,P2,2.967,P4,0.8174,P2,7.126,P5,15.45,P5
8023,C94,,91.7%,Min,-140.8,P3,-1.062,P3,-7.067,P5,-6.438,P24,-15.43,P5,-0.8046,P3,0.05330,P35,1.965,P2
8023,C94,7134,100.0%,Max,119.8,P2,1.165,P2,7.805,P4,-2.196,P2,4.843,P4,0.8963,P2,7.871,P4,17.09,P5
8023,C94,7134,100.0%,Min,-140.8,P3,-1.062,P3,-5.715,P5,-6.438,P24,-17.07,P5,-0.9164,P3,0.1860,P12,2.960,P2
8024,C94,5214,0.0%,Max,103.1,P2,0.8334,P2,-21.63,P2,0.4950,P4,138.9,P24,0.7093,P2,53.98,P24,138.9,P24
8024,C94,5214,0.0%,Min,-134.1,P3,-0.9892,P3,-53.98,P24,-0.2898,P5,55.30,P3,-0.8961,P3,21.64,P2,55.30,P3
8024,C94,,8.3%,Max,103.1,P2,0.8334,P2,-20.28,P2,0.4950,P4,122.0,P24,0.6265,P2,52.15,P24,122.0,P24
8024,C94,,8.3%,Min,-134.1,P3,-0.9892,P3,-52.15,P24,-0.2898,P5,48.51,P3,-0.7636,P3,20.29,P2,48.51,P3
8024,C94,,16.7%,Max,103.1,P2,0.8334,P2,-18.92,P2,0.4950,P4,105.6,P24,0.5438,P2,50.33,P24,105.6,P24
8024,C94,,16.7%,Min,-134.1,P3,-0.9892,P3,-50.33,P24,-0.2898,P5,42.15,P3,-0.6312,P3,18.94,P2,42.16,P3
8024,C94,,25.0%,Max,103.1,P2,0.8334,P2,-17.57,P2,0.4950,P4,89.84,P22,0.4611,P2,48.50,P24,89.84,P22
8024,C94,,25.0%,Min,-134.1,P3,-0.9892,P3,-48.50,P24,-0.2898,P5,36.16,P57,-0.4987,P3,17.59,P2,36.16,P57
8024,C94,,33.3%,Max,103.1,P2,0.8334,P2,-16.22,P2,0.4950,P4,74.76,P22,0.3783,P2,46.67,P24,74.76,P22
8024,C94,,33.3%,Min,-134.1,P3,-0.9892,P3,-46.67,P24,-0.2898,P5,29.89,P57,-0.3662,P3,16.24,P2,29.89,P57
8024,C94,,33.3%,Max,113.9,P2,0.6041,P2,-13.88,P4,1.094,P22,64.00,P22,0.3826,P2,38.12,P24,64.00,P22
8024,C94,,33.3%,Min,-141.1,P3,-0.6824,P3,-38.12,P24,0.1290,P3,25.65,P57,-0.5335,P3,13.89,P4,25.65,P57
8024,C94,,41.7%,Max,113.9,P2,0.6041,P2,-12.52,P4,1.094,P22,52.26,P22,0.3847,P2,36.29,P24,52.26,P22
8024,C94,,41.7%,Min,-141.1,P3,-0.6824,P3,-36.29,P24,0.1290,P3,20.65,P3,-0.5106,P3,12.53,P4,20.66,P3
8024,C94,,50.0%,Max,113.9,P2,0.6041,P2,-11.17,P4,1.094,P22,41.10,P22,0.3868,P2,34.47,P24,41.10,P22
8024,C94,,50.0%,Min,-141.1,P3,-0.6824,P3,-34.47,P24,0.1290,P3,15.47,P3,-0.4877,P3,11.18,P4,15.48,P3
8024,C94,,58.3%,Max,113.9,P2,0.6041,P2,-9.819,P4,1.094,P22,30.52,P22,0.3888,P2,32.64,P24,30.52,P22
8024,C94,,58.3%,Min,-141.1,P3,-0.6824,P3,-32.64,P24,0.1290,P3,10.72,P3,-0.4648,P3,9.830,P4,10.73,P3
8024,C94,,66.7%,Max,113.9,P2,0.6041,P2,-8.466,P4,1.094,P22,20.53,P22,0.3909,P2,30.81,P24,20.53,P22
8024,C94,,66.7%,Min,-141.1,P3,-0.6824,P3,-30.81,P24,0.1290,P3,6.408,P3,-0.4419,P3,8.479,P4,6.423,P3
8024,C94,,66.7%,Max,124.3,P2,1.157,P2,-5.423,P4,1.058,P22,24.00,P22,0.4870,P2,24.16,P24,24.00,P22
8024,C94,,66.7%,Min,-146.6,P3,-1.242,P3,-24.16,P24,0.2072,P3,7.652,P3,-0.5718,P3,5.506,P4,7.673,P3
8024,C94,,75.0%,Max,124.3,P2,1.157,P2,-4.070,P4,1.058,P22,16.72,P22,0.6199,P2,22.33,P24,16.72,P22
8024,C94,,75.0%,Min,-146.6,P3,-1.242,P3,-22.33,P24,0.2072,P3,1.952,P5,-0.6776,P3,4.180,P4,2.034,P5
8024,C94,,83.3%,Max,124.3,P2,1.157,P2,-2.717,P4,1.058,P22,13.23,P4,0.7529,P2,20.51,P24,13.24,P4
8024,C94,,83.3%,Min,-146.6,P3,-1.242,P3,-20.51,P24,0.2072,P3,-3.474,P5,-0.7834,P3,2.879,P4,2.247,P3
8024,C94,,91.7%,Max,124.3,P2,1.157,P2,-1.364,P4,1.058,P22,12.39,P4,0.8858,P2,18.68,P24,12.41,P4
8024,C94,,91.7%,Min,-146.6,P3,-1.242,P3,-18.68,P24,0.2072,P3,-8.468,P5,-0.8892,P3,1.664,P4,0.6563,P48
8024,C94,7119,100.0%,Max,124.3,P2,1.157,P2,-0.01078,P4,1.058,P22,11.98,P4,1.019,P2,16.85,P24,13.05,P5
8024,C94,7119,100.0%,Min,-146.6,P3,-1.242,P3,-16.85,P24,0.2072,P3,-13.03,P5,-0.9950,P3,0.9528,P4,0.06757,P75
8037,C94,5218,0.0%,Max,128.4,P4,0.7390,P4,-3.228,P4,-0.5344,P56,24.01,P33,0.7814,P4,7.398,P5,24.01,P33
8037,C94,5218,0.0%,Min,-170.9,P5,-0.6489,P5,-7.369,P5,-1.234,P24,7.663,P5,-0.5783,P5,3.312,P4,7.685,P5
8037,C94,,12.5%,Max,128.4,P4,0.7390,P4,-1.391,P4,-0.5344,P56,22.24,P33,0.7238,P4,5.570,P5,22.24,P33
8037,C94,,12.5%,Min,-170.9,P5,-0.6489,P5,-5.532,P5,-1.234,P24,6.532,P5,-0.5598,P5,1.575,P4,6.556,P5
8037,C94,,25.0%,Max,128.4,P4,0.7390,P4,0.4459,P4,-0.5344,P56,21.55,P33,0.6661,P4,3.752,P5,21.55,P33
8037,C94,,25.0%,Min,-170.9,P5,-0.6489,P5,-3.695,P5,-1.234,P24,6.198,P5,-0.5412,P5,0.1474,P24,6.221,P5
8037,C94,,37.5%,Max,128.4,P4,0.7390,P4,2.428,P24,-0.5344,P56,21.93,P33,0.6085,P4,2.432,P24,21.93,P33
8037,C94,,37.5%,Min,-170.9,P5,-0.6489,P5,-1.858,P5,-1.234,P24,6.660,P5,-0.5227,P5,0.1231,P48,6.680,P5
8037,C94,,50.0%,Max,128.4,P4,0.7390,P4,4.908,P24,-0.5344,P56,23.38,P33,0.5509,P4,4.910,P24,23.38,P33
8037,C94,,50.0%,Min,-170.9,P5,-0.6489,P5,-0.02086,P5,-1.234,P24,7.918,P5,-0.5042,P5,0.5647,P3,7.934,P5
8037,C94,,50.0%,Max,120.3,P4,0.4939,P2,7.489,P24,-0.05935,P2,24.89,P33,0.4025,P2,7.490,P24,24.89,P33
8037,C94,,50.0%,Min,-161.3,P5,-0.3814,P3,0.5362,P5,-0.3529,P24,8.757,P5,-0.2231,P3,0.6011,P5,8.758,P5
8037,C94,,62.5%,Max,120.3,P4,0.4939,P2,9.969,P24,-0.05935,P2,28.57,P33,0.4151,P2,9.970,P24,28.57,P33
8037,C94,,62.5%,Min,-161.3,P5,-0.3814,P3,2.373,P5,-0.3529,P24,9.830,P5,-0.2845,P3,2.389,P5,9.832,P5
8037,C94,,75.0%,Max,120.3,P4,0.4939,P2,12.45,P24,-0.05935,P2,33.32,P33,0.4276,P2,12.45,P24,33.32,P33
8037,C94,,75.0%,Min,-161.3,P5,-0.3814,P3,4.210,P5,-0.3529,P24,11.70,P5,-0.3458,P3,4.219,P5,11.70,P5
8037,C94,,87.5%,Max,120.3,P4,0.4939,P2,14.93,P24,-0.05935,P2,39.19,P6,0.4402,P2,14.93,P24,39.19,P6
8037,C94,,87.5%,Min,-161.3,P5,-0.3814,P3,6.047,P5,-0.3529,P24,14.37,P5,-0.4071,P3,6.054,P5,14.37,P5
8037,C94,5217,100.0%,Max,120.3,P4,0.4939,P2,17.41,P24,-0.05935,P2,46.16,P6,0.4527,P2,17.41,P24,46.16,P6
8037,C94,5217,100.0%,Min,-161.3,P5,-0.3814,P3,7.884,P5,-0.3529,P24,17.83,P5,-0.4685,P3,7.889,P5,17.84,P5
8038,C94,6034,0.0%,Max,18.16,P4,5.784,P4,178.8,P6,2.497,P2,-8.172,P80,5.669,P4,178.8,P6,23.02,P24
8038,C94,6034,0.0%,Min,-10.43,P5,-5.293,P5,66.41,P5,-0.2348,P3,-23.01,P24,-5.318,P5,66.62,P5,8.174,P75
8038,C94,,12.5%,Max,18.16,P4,5.784,P4,184.0,P6,2.497,P2,51.25,P6,5.089,P4,184.0,P6,51.25,P6
8038,C94,,12.5%,Min,-10.43,P5,-5.293,P5,70.26,P5,-0.2348,P3,16.94,P5,-4.939,P5,70.46,P5,17.64,P5
8038,C94,,25.0%,Max,18.16,P4,5.784,P4,189.2,P6,2.497,P2,127.6,P6,4.509,P4,189.2,P6,127.6,P6
8038,C94,,25.0%,Min,-10.43,P5,-5.293,P5,74.11,P5,-0.2348,P3,46.73,P5,-4.560,P5,74.30,P5,46.95,P5
8038,C94,,37.5%,Max,18.16,P4,5.784,P4,194.4,P6,2.497,P2,206.1,P6,3.930,P4,194.4,P6,206.1,P6
8038,C94,,37.5%,Min,-10.43,P5,-5.293,P5,77.96,P5,-0.2348,P3,78.10,P5,-4.181,P5,78.14,P5,78.21,P5
8038,C94,,50.0%,Max,18.16,P4,5.784,P4,199.6,P6,2.497,P2,286.7,P6,3.350,P4,199.6,P6,286.7,P6
8038,C94,,50.0%,Min,-10.43,P5,-5.293,P5,81.82,P5,-0.2348,P3,111.0,P5,-3.802,P5,81.99,P5,111.1,P5
8038,C94,,50.0%,Max,24.56,P4,24.12,P4,270.5,P6,4.087,P25,320.0,P6,15.98,P4,270.5,P6,320.0,P6
8038,C94,,50.0%,Min,-15.29,P5,-22.47,P5,111.2,P5,0.2017,P5,124.7,P5,-15.01,P5,113.4,P5,125.6,P5
8038,C94,,62.5%,Max,24.56,P4,24.12,P4,275.7,P6,4.087,P25,431.7,P6,17.43,P4,275.7,P6,431.7,P6
8038,C94,,62.5%,Min,-15.29,P5,-22.47,P5,115.0,P5,0.2017,P5,171.0,P5,-17.13,P5,117.2,P5,171.9,P5
8038,C94,,75.0%,Max,24.56,P4,24.12,P4,280.9,P6,4.087,P25,545.6,P6,18.88,P4,280.9,P6,545.6,P6
8038,C94,,75.0%,Min,-15.29,P5,-22.47,P5,118.9,P5,0.2017,P5,218.9,P5,-19.25,P5,121.0,P5,219.7,P5
8038,C94,,87.5%,Max,24.56,P4,24.12,P4,286.1,P6,4.087,P25,661.6,P6,20.33,P4,286.1,P6,661.6,P6
8038,C94,,87.5%,Min,-15.29,P5,-22.47,P5,122.7,P5,0.2017,P5,268.3,P5,-21.38,P5,124.8,P5,269.2,P5
8038,C94,4892,100.0%,Max,24.56,P4,24.12,P4,291.3,P6,4.087,P25,779.8,P6,21.77,P4,291.3,P6,779.8,P6
8038,C94,4892,100.0%,Min,-15.29,P5,-22.47,P5,126.6,P5,0.2017,P5,319.4,P5,-23.50,P5,128.6,P5,320.2,P5
8039,C94,5220,0.0%,Max,134.5,P4,0.5962,P4,-5.708,P4,0.3943,P8,35.59,P33,0.5767,P4,12.01,P21,35.59,P33
8039,C94,5220,0.0%,Min,-181.3,P5,-0.7347,P5,-12.01,P21,0.1185,P5,12.95,P5,-0.8388,P5,5.739,P4,12.98,P5
8039,C94,,12.5%,Max,134.5,P4,0.5962,P4,-3.882,P4,0.3943,P8,31.04,P33,0.5411,P4,9.801,P5,31.04,P33
8039,C94,,12.5%,Min,-181.3,P5,-0.7347,P5,-9.774,P5,0.1185,P5,10.68,P5,-0.7436,P5,3.927,P4,10.71,P5
8039,C94,,25.0%,Max,134.5,P4,0.5962,P4,-2.055,P4,0.3943,P8,27.56,P32,0.5056,P4,7.982,P5,27.56,P32
8039,C94,,25.0%,Min,-181.3,P5,-0.7347,P5,-7.948,P5,0.1185,P5,9.200,P5,-0.6483,P5,2.140,P4,9.223,P5
8039,C94,,37.5%,Max,134.5,P4,0.5962,P4,-0.2294,P4,0.3943,P8,25.17,P8,0.4700,P4,6.166,P5,25.17,P8
8039,C94,,37.5%,Min,-181.3,P5,-0.7347,P5,-6.122,P5,0.1185,P5,8.505,P5,-0.5531,P5,0.6388,P4,8.523,P5
8039,C94,,50.0%,Max,134.5,P4,0.5962,P4,1.597,P4,0.3943,P8,23.93,P6,0.4345,P4,4.358,P5,23.93,P6
8039,C94,,50.0%,Min,-181.3,P5,-0.7347,P5,-4.296,P5,0.1185,P5,8.598,P5,-0.4578,P5,0.9023,P2,8.610,P5
8039,C94,,50.0%,Max,122.2,P4,0.1476,P2,5.231,P24,1.259,P24,28.34,P8,0.08198,P4,5.232,P24,28.34,P8
8039,C94,,50.0%,Min,-166.9,P5,-0.2418,P3,-0.9931,P5,0.4608,P57,10.35,P5,-0.2528,P5,0.04357,P69,10.35,P5
8039,C94,,62.5%,Max,122.2,P4,0.1476,P2,7.696,P24,1.259,P24,31.05,P8,0.1143,P4,7.697,P24,31.05,P8
8039,C94,,62.5%,Min,-166.9,P5,-0.2418,P3,0.8330,P5,0.4608,P57,10.87,P5,-0.2446,P5,0.8507,P5,10.87,P5
8039,C94,,75.0%,Max,122.2,P4,0.1476,P2,10.16,P24,1.259,P24,34.87,P25,0.1493,P2,10.16,P24,34.87,P25
8039,C94,,75.0%,Min,-166.9,P5,-0.2418,P3,2.659,P5,0.4608,P57,12.18,P5,-0.2390,P3,2.665,P5,12.18,P5
8039,C94,,87.5%,Max,122.2,P4,0.1476,P2,12.63,P24,1.259,P24,39.77,P25,0.1854,P2,12.63,P24,39.77,P25
8039,C94,,87.5%,Min,-166.9,P5,-0.2418,P3,4.485,P5,0.4608,P57,14.27,P5,-0.2345,P3,4.488,P5,14.28,P5
8039,C94,5215,100.0%,Max,122.2,P4,0.1476,P2,15.09,P24,1.259,P24,45.74,P25,0.2216,P2,15.09,P24,45.74,P25
8039,C94,5215,100.0%,Min,-166.9,P5,-0.2418,P3,6.311,P5,0.4608,P57,17.16,P5,-0.2300,P3,6.314,P5,17.16,P5
8040,C94,5214,0.0%,Max,43.19,P2,1.858,P2,172.1,P24,9.149,P33,-17.08,P57,1.992,P2,172.1,P24,42.62,P24
8040,C94,5214,0.0%,Min,-31.81,P3,-1.744,P3,71.27,P3,2.743,P3,-42.62,P24,-1.590,P3,71.30,P3,17.08,P57
8040,C94,,8.3%,Max,43.19,P2,1.858,P2,176.5,P24,9.149,P33,19.36,P2,1.767,P2,176.5,P24,19.44,P2
8040,C94,,8.3%,Min,-31.81,P3,-1.744,P3,74.50,P3,2.743,P3,1.057,P3,-1.403,P3,74.52,P3,1.757,P3
8040,C94,,16.7%,Max,43.19,P2,1.858,P2,180.8,P24,9.149,P33,78.31,P24,1.541,P2,180.8,P24,78.31,P24
8040,C94,,16.7%,Min,-31.81,P3,-1.744,P3,77.73,P3,2.743,P3,29.18,P3,-1.216,P3,77.74,P3,29.20,P3
8040,C94,,25.0%,Max,43.19,P2,1.858,P2,185.2,P24,9.149,P33,141.0,P24,1.315,P2,185.2,P24,141.0,P24
8040,C94,,25.0%,Min,-31.81,P3,-1.744,P3,80.95,P3,2.743,P3,58.41,P3,-1.029,P3,80.97,P3,58.42,P3
8040,C94,,33.3%,Max,43.19,P2,1.858,P2,189.6,P24,9.149,P33,205.2,P24,1.090,P2,189.6,P24,205.2,P24
8040,C94,,33.3%,Min,-31.81,P3,-1.744,P3,84.18,P3,2.743,P3,88.74,P3,-0.8425,P3,84.19,P3,88.74,P3
8040,C94,,33.3%,Max,53.41,P2,9.292,P4,291.3,P24,-2.448,P2,230.2,P24,7.392,P4,291.3,P24,230.2,P24
8040,C94,,33.3%,Min,-38.99,P3,-7.600,P5,125.6,P3,-9.154,P24,99.58,P3,-6.054,P5,125.8,P3,99.67,P3
8040,C94,,41.7%,Max,53.41,P2,9.292,P4,295.7,P24,-2.448,P2,330.8,P24,6.639,P4,295.7,P24,330.8,P24
8040,C94,,41.7%,Min,-38.99,P3,-7.600,P5,128.9,P3,-9.154,P24,143.2,P3,-5.881,P5,129.0,P3,143.2,P3
8040,C94,,50.0%,Max,53.41,P2,9.292,P4,300.0,P24,-2.448,P2,432.8,P24,5.886,P4,300.0,P24,432.8,P24
8040,C94,,50.0%,Min,-38.99,P3,-7.600,P5,132.1,P3,-9.154,P24,187.9,P3,-5.708,P5,132.2,P3,187.9,P3
8040,C94,,58.3%,Max,53.41,P2,9.292,P4,304.4,P24,-2.448,P2,536.3,P24,5.133,P4,304.4,P24,536.3,P24
8040,C94,,58.3%,Min,-38.99,P3,-7.600,P5,135.3,P3,-9.154,P24,233.7,P3,-5.535,P5,135.4,P3,233.7,P3
8040,C94,,66.7%,Max,53.41,P2,9.292,P4,308.8,P24,-2.448,P2,641.4,P24,4.380,P4,308.8,P24,641.4,P24
8040,C94,,66.7%,Min,-38.99,P3,-7.600,P5,138.5,P3,-9.154,P24,280.6,P3,-5.362,P5,138.7,P3,280.6,P3
8040,C94,,66.7%,Max,69.81,P4,38.47,P4,391.6,P24,-2.585,P2,683.8,P24,20.72,P4,391.6,P24,683.8,P24
8040,C94,,66.7%,Min,-59.36,P57,-33.56,P5,172.3,P69,-8.985,P24,299.3,P3,-17.82,P5,172.3,P69,299.5,P3
8040,C94,,75.0%,Max,69.81,P4,38.47,P4,396.0,P24,-2.585,P2,818.7,P24,22.59,P4,396.0,P24,818.7,P24
8040,C94,,75.0%,Min,-59.36,P57,-33.56,P5,175.5,P69,-8.985,P24,359.5,P3,-21.37,P5,175.6,P69,359.8,P3
8040,C94,,83.3%,Max,69.81,P4,38.47,P4,400.3,P24,-2.585,P2,955.1,P24,24.45,P4,400.4,P24,955.1,P24
8040,C94,,83.3%,Min,-59.36,P57,-33.56,P5,178.7,P69,-8.985,P24,420.8,P3,-24.91,P5,178.8,P69,421.2,P3
8040,C94,,91.7%,Max,69.81,P4,38.47,P4,404.7,P24,-2.585,P2,1093.,P24,26.32,P4,404.7,P24,1093.,P24
8040,C94,,91.7%,Min,-59.36,P57,-33.56,P5,182.0,P69,-8.985,P24,483.2,P3,-28.46,P5,182.0,P69,483.7,P3
8040,C94,4990,100.0%,Max,69.81,P4,38.47,P4,409.0,P24,-2.585,P2,1232.,P24,28.18,P4,409.1,P24,1232.,P24
8040,C94,4990,100.0%,Min,-59.36,P57,-33.56,P5,185.2,P69,-8.985,P24,546.8,P3,-32.00,P5,185.2,P69,547.2,P3
8041,C94,5216,0.0%,Max,18.33,P4,5.108,P4,181.1,P33,-0.3050,P4,-8.741,P57,5.320,P4,181.1,P33,24.58,P24
8041,C94,5216,0.0%,Min,-11.36,P5,-5.572,P5,67.65,P5,-2.897,P33,-24.58,P24,-5.653,P5,67.88,P5,8.754,P69
8041,C94,,12.5%,Max,18.33,P4,5.108,P4,186.4,P33,-0.3050,P4,51.67,P33,4.887,P4,186.4,P33,51.67,P33
8041,C94,,12.5%,Min,-11.36,P5,-5.572,P5,71.55,P5,-2.897,P33,16.97,P5,-5.028,P5,71.77,P5,17.70,P5
8041,C94,,25.0%,Max,18.33,P4,5.108,P4,191.6,P33,-0.3050,P4,130.0,P33,4.454,P4,191.6,P33,130.0,P33
8041,C94,,25.0%,Min,-11.36,P5,-5.572,P5,75.45,P5,-2.897,P33,47.74,P5,-4.402,P5,75.66,P5,47.95,P5
8041,C94,,37.5%,Max,18.33,P4,5.108,P4,196.9,P33,-0.3050,P4,210.5,P33,4.022,P4,196.9,P33,210.5,P33
8041,C94,,37.5%,Min,-11.36,P5,-5.572,P5,79.35,P5,-2.897,P33,80.13,P5,-3.777,P5,79.55,P5,80.22,P5
8041,C94,,50.0%,Max,18.33,P4,5.108,P4,202.2,P33,-0.3050,P4,293.2,P33,3.589,P4,202.2,P33,293.2,P33
8041,C94,,50.0%,Min,-11.36,P5,-5.572,P5,83.25,P5,-2.897,P33,114.1,P5,-3.152,P5,83.44,P5,114.2,P5
8041,C94,,50.0%,Max,20.67,P4,22.37,P4,270.9,P33,-0.2781,P4,326.3,P33,15.18,P4,270.9,P33,326.3,P33
8041,C94,,50.0%,Min,-17.20,P5,-24.41,P5,111.6,P5,-3.932,P33,127.7,P5,-16.34,P5,114.2,P5,128.7,P5
8041,C94,,62.5%,Max,20.67,P4,22.37,P4,276.2,P33,-0.2781,P4,439.7,P33,17.42,P4,276.2,P33,439.7,P33
8041,C94,,62.5%,Min,-17.20,P5,-24.41,P5,115.5,P5,-3.932,P33,174.8,P5,-17.73,P5,118.0,P5,175.7,P5
8041,C94,,75.0%,Max,20.67,P4,22.37,P4,281.5,P33,-0.2781,P4,555.2,P33,19.65,P4,281.5,P33,555.2,P33
8041,C94,,75.0%,Min,-17.20,P5,-24.41,P5,119.4,P5,-3.932,P33,223.5,P5,-19.13,P5,121.9,P5,224.3,P5
8041,C94,,87.5%,Max,20.67,P4,22.37,P4,286.7,P33,-0.2781,P4,673.0,P33,21.89,P4,286.7,P33,673.0,P33
8041,C94,,87.5%,Min,-17.20,P5,-24.41,P5,123.3,P5,-3.932,P33,273.8,P5,-20.52,P5,125.7,P5,274.5,P5
8041,C94,4889,100.0%,Max,20.67,P4,22.37,P4,292.0,P33,-0.2781,P4,792.9,P33,24.12,P4,292.0,P33,792.9,P33
8041,C94,4889,100.0%,Min,-17.20,P5,-24.41,P5,127.2,P5,-3.932,P33,325.7,P5,-21.91,P5,129.5,P5,326.4,P5
8042,C94,5215,0.0%,Max,112.6,P4,0.2986,P4,-19.46,P4,-3.973,P77,43.83,P24,0.3536,P4,43.97,P24,43.83,P24
8042,C94,5215,0.0%,Min,-157.3,P5,-0.3402,P5,-43.97,P24,-10.06,P22,15.94,P5,-0.4566,P5,19.47,P4,15.94,P5
8042,C94,,8.3%,Max,112.6,P4,0.2986,P4,-17.77,P4,-3.973,P77,26.65,P25,0.3067,P4,41.68,P24,26.65,P25
8042,C94,,8.3%,Min,-157.3,P5,-0.3402,P5,-41.68,P24,-10.06,P22,7.512,P5,-0.3930,P5,17.77,P4,7.522,P5
8042,C94,,16.7%,Max,112.6,P4,0.2986,P4,-16.07,P4,-3.973,P77,10.40,P25,0.2598,P4,39.38,P24,10.40,P25
8042,C94,,16.7%,Min,-157.3,P5,-0.3402,P5,-39.38,P24,-10.06,P22,-0.2327,P5,-0.3294,P5,16.07,P4,0.3861,P3
8042,C94,,25.0%,Max,112.6,P4,0.2986,P4,-14.37,P4,-3.973,P77,0.8481,P2,0.2294,P2,37.09,P24,7.744,P3
8042,C94,,25.0%,Min,-157.3,P5,-0.3402,P5,-37.09,P24,-10.06,P22,-7.739,P3,-0.2824,P3,14.37,P4,0.4571,P4
8042,C94,,33.3%,Max,112.6,P4,0.2986,P4,-12.67,P4,-3.973,P77,-6.913,P2,0.2108,P2,34.79,P24,19.44,P22
8042,C94,,33.3%,Min,-157.3,P5,-0.3402,P5,-34.79,P24,-10.06,P22,-19.44,P22,-0.2471,P3,12.67,P4,6.916,P2
8042,C94,,33.3%,Max,99.27,P4,0.2801,P4,0.4861,P4,0.1110,P2,-13.73,P2,0.2630,P4,2.613,P5,33.73,P22
8042,C94,,33.3%,Min,-146.8,P5,-0.3647,P5,-2.587,P5,-0.1137,P3,-33.73,P22,-0.4403,P5,0.2223,P21,13.73,P2
8042,C94,,41.7%,Max,99.27,P4,0.2801,P4,2.185,P4,0.1110,P2,-13.82,P2,0.2438,P4,2.203,P4,33.66,P22
8042,C94,,41.7%,Min,-146.8,P5,-0.3647,P5,-0.8878,P5,-0.1137,P3,-33.66,P22,-0.3872,P5,0.05507,P37,13.82,P2
8042,C94,,50.0%,Max,99.27,P4,0.2801,P4,4.367,P21,0.1110,P2,-13.24,P2,0.2247,P4,4.367,P21,32.72,P24
8042,C94,,50.0%,Min,-146.8,P5,-0.3647,P5,0.8116,P5,-0.1137,P3,-32.72,P24,-0.3342,P5,0.8898,P5,13.24,P2
8042,C94,,58.3%,Max,99.27,P4,0.2801,P4,6.661,P21,0.1110,P2,-11.97,P2,0.2056,P4,6.661,P21,30.87,P24
8042,C94,,58.3%,Min,-146.8,P5,-0.3647,P5,2.511,P5,-0.1137,P3,-30.87,P24,-0.2811,P5,2.537,P5,11.97,P2
8042,C94,,66.7%,Max,99.27,P4,0.2801,P4,8.955,P21,0.1110,P2,-10.02,P2,0.1865,P4,8.955,P21,28.10,P24
8042,C94,,66.7%,Min,-146.8,P5,-0.3647,P5,4.210,P5,-0.1137,P3,-28.10,P24,-0.2280,P5,4.226,P5,10.02,P2
8042,C94,,66.7%,Max,85.49,P4,0.8264,P2,52.77,P33,12.42,P33,-5.526,P2,0.6358,P4,52.77,P33,20.60,P24
8042,C94,,66.7%,Min,-134.3,P5,-0.6994,P3,19.51,P5,4.962,P46,-20.60,P24,-0.6560,P5,19.51,P5,5.556,P2
8042,C94,,75.0%,Max,85.49,P4,0.8264,P2,55.06,P33,12.42,P33,7.890,P4,0.5780,P2,55.06,P33,7.908,P4
8042,C94,,75.0%,Min,-134.3,P5,-0.6994,P3,21.21,P5,4.962,P46,-5.927,P5,-0.6491,P3,21.21,P5,0.01423,P85
8042,C94,,83.3%,Max,85.49,P4,0.8264,P2,57.36,P33,12.42,P33,25.13,P33,0.5758,P2,57.36,P33,25.13,P33
8042,C94,,83.3%,Min,-134.3,P5,-0.6994,P3,22.91,P5,4.962,P46,3.394,P5,-0.6979,P3,22.91,P5,3.441,P5
8042,C94,,91.7%,Max,85.49,P4,0.8264,P2,59.65,P33,12.42,P33,48.60,P33,0.5737,P2,59.65,P33,48.60,P33
8042,C94,,91.7%,Min,-134.3,P5,-0.6994,P3,24.61,P5,4.962,P46,13.40,P5,-0.7468,P3,24.61,P5,13.41,P5
8042,C94,5216,100.0%,Max,85.49,P4,0.8264,P2,61.94,P33,12.42,P33,72.98,P33,0.5716,P2,61.94,P33,72.98,P33
8042,C94,5216,100.0%,Min,-134.3,P5,-0.6994,P3,26.31,P5,4.962,P46,24.08,P5,-0.7956,P3,26.31,P5,24.09,P5
8043,C94,7390,0.0%,Max,243.9,P2,11.06,P12,-71.41,P53,14.21,P27,364.0,P22,10.10,P12,171.6,P32,364.0,P22
8043,C94,7390,0.0%,Min,-713.9,P3,1.126,P51,-171.4,P32,4.210,P60,104.7,P5,0.8531,P51,71.71,P53,104.7,P5
8043,C94,,3.6%,Max,243.9,P2,11.06,P12,-69.42,P53,14.21,P27,304.2,P22,6.210,P12,168.9,P32,304.2,P22
8043,C94,,3.6%,Min,-713.9,P3,1.126,P51,-168.7,P32,4.210,P60,76.69,P5,0.4573,P51,69.73,P53,76.70,P5
8043,C94,,7.1%,Max,243.9,P2,11.06,P12,-67.44,P53,14.21,P27,245.4,P22,3.352,P2,166.2,P32,245.4,P22
8043,C94,,7.1%,Min,-713.9,P3,1.126,P51,-166.0,P32,4.210,P60,49.41,P5,-1.034,P3,67.76,P53,49.41,P5
8043,C94,,10.7%,Max,243.9,P2,11.06,P12,-65.45,P53,14.21,P27,190.3,P10,1.086,P2,163.6,P32,190.3,P10
8043,C94,,10.7%,Min,-713.9,P3,1.126,P51,-163.3,P32,4.210,P60,22.82,P5,-2.768,P3,65.78,P53,22.95,P5
8043,C94,,14.3%,Max,243.9,P2,11.06,P12,-63.46,P53,14.21,P27,137.5,P10,-0.7232,P47,160.9,P32,137.5,P10
8043,C94,,14.3%,Min,-713.9,P3,1.126,P51,-160.7,P32,4.210,P60,-3.073,P5,-5.488,P28,63.80,P53,5.139,P5
8043,C94,,14.3%,Max,317.1,P2,3.058,P13,-52.76,P53,9.536,P27,126.1,P10,3.221,P12,131.6,P32,126.1,P10
8043,C94,,14.3%,Min,-650.2,P3,0.2765,P68,-131.6,P32,2.672,P60,-8.656,P5,0.3431,P63,52.80,P53,5.473,P67
8043,C94,,17.9%,Max,317.1,P2,3.058,P13,-50.77,P53,9.536,P27,83.28,P10,2.146,P12,128.9,P32,83.29,P10
8043,C94,,17.9%,Min,-650.2,P3,0.2765,P68,-128.9,P32,2.672,P60,-29.48,P5,-0.08533,P3,50.82,P53,1.282,P85
8043,C94,,21.4%,Max,317.1,P2,3.058,P13,-48.79,P53,9.536,P27,45.47,P4,1.754,P2,126.3,P32,49.61,P5
8043,C94,,21.4%,Min,-650.2,P3,0.2765,P68,-126.2,P32,2.672,P60,-49.61,P5,-0.7331,P3,48.83,P53,1.011,P8
8043,C94,,25.0%,Max,317.1,P2,3.058,P13,-46.80,P53,9.536,P27,20.55,P4,1.371,P2,123.6,P32,69.04,P5
8043,C94,,25.0%,Min,-650.2,P3,0.2765,P68,-123.6,P32,2.672,P60,-69.03,P5,-1.381,P3,46.85,P53,0.05412,P11
8043,C94,,28.6%,Max,317.1,P2,3.058,P13,-44.82,P53,9.536,P27,-1.308,P46,0.9875,P2,120.9,P32,96.50,P19
8043,C94,,28.6%,Min,-650.2,P3,0.2765,P68,-120.9,P32,2.672,P60,-96.50,P19,-2.029,P3,44.86,P53,1.312,P46
8043,C94,,28.6%,Max,342.1,P2,0.6674,P2,-33.77,P53,8.950,P27,-3.506,P46,0.1440,P2,91.56,P32,99.80,P19
8043,C94,,28.6%,Min,-621.3,P3,-1.144,P3,-91.56,P32,2.614,P60,-99.80,P19,-0.5870,P3,33.78,P53,3.506,P46
8043,C94,,32.1%,Max,342.1,P2,0.6674,P2,-31.79,P53,8.950,P27,-19.30,P46,0.5385,P2,88.88,P32,126.8,P31
8043,C94,,32.1%,Min,-621.3,P3,-1.144,P3,-88.88,P32,2.614,P60,-126.8,P31,-0.8139,P3,31.79,P53,19.30,P46
8043,C94,,35.7%,Max,342.1,P2,0.6674,P2,-29.80,P53,8.950,P27,-34.39,P46,0.9330,P2,86.20,P32,155.5,P31
8043,C94,,35.7%,Min,-621.3,P3,-1.144,P3,-86.19,P32,2.614,P60,-155.5,P31,-1.041,P3,29.80,P53,34.40,P46
8043,C94,,39.3%,Max,342.1,P2,0.6674,P2,-27.82,P53,8.950,P27,-48.79,P46,1.328,P2,83.51,P32,183.2,P31
8043,C94,,39.3%,Min,-621.3,P3,-1.144,P3,-83.51,P32,2.614,P60,-183.2,P31,-1.268,P3,27.82,P53,48.79,P46
8043,C94,,42.9%,Max,342.1,P2,0.6674,P2,-25.83,P53,8.950,P27,-62.49,P46,1.722,P2,80.83,P32,210.0,P31
8043,C94,,42.9%,Min,-621.3,P3,-1.144,P3,-80.83,P32,2.614,P60,-210.0,P31,-1.495,P3,25.83,P53,62.49,P46
8043,C94,,42.9%,Max,349.9,P2,0.6842,P4,-5.789,P4,-0.2426,P4,-63.36,P46,0.7072,P2,31.26,P20,210.6,P31
8043,C94,,42.9%,Min,-590.8,P3,-0.5927,P5,-31.26,P20,-1.960,P5,-210.6,P31,-0.6279,P3,5.829,P4,63.36,P46
8043,C94,,46.4%,Max,349.9,P2,0.6842,P4,-3.803,P4,-0.2426,P4,-69.66,P46,0.8356,P2,28.58,P20,218.9,P31
8043,C94,,46.4%,Min,-590.8,P3,-0.5927,P5,-28.58,P20,-1.960,P5,-218.9,P31,-0.7885,P3,3.864,P4,69.66,P46
8043,C94,,50.0%,Max,349.9,P2,0.6842,P4,-1.817,P4,-0.2426,P4,-75.27,P46,0.9640,P2,25.90,P20,226.3,P31
8043,C94,,50.0%,Min,-590.8,P3,-0.5927,P5,-25.90,P20,-1.960,P5,-226.3,P31,-0.9491,P3,1.941,P4,75.27,P46
8043,C94,,53.6%,Max,349.9,P2,0.6842,P4,0.1696,P4,-0.2426,P4,-80.17,P46,1.092,P2,23.22,P20,232.8,P31
8043,C94,,53.6%,Min,-590.8,P3,-0.5927,P5,-23.22,P20,-1.960,P5,-232.8,P31,-1.110,P3,0.7049,P4,80.17,P46
8043,C94,,57.1%,Max,349.9,P2,0.6842,P4,2.156,P4,-0.2426,P4,-84.38,P46,1.221,P2,20.54,P20,238.3,P31
8043,C94,,57.1%,Min,-590.8,P3,-0.5927,P5,-20.54,P20,-1.960,P5,-238.3,P31,-1.270,P3,0.2285,P60,84.38,P46
8043,C94,,57.1%,Max,344.6,P2,0.5428,P4,17.70,P17,0.1076,P4,-84.83,P46,1.044,P2,17.71,P17,238.5,P31
8043,C94,,57.1%,Min,-560.9,P3,-0.4451,P5,-1.793,P68,-2.488,P12,-238.5,P31,-0.9684,P3,0.1997,P39,84.83,P46
8043,C94,,60.7%,Max,344.6,P2,0.5428,P4,20.38,P17,0.1076,P4,-84.44,P46,0.9751,P2,20.39,P17,232.7,P31
8043,C94,,60.7%,Min,-560.9,P3,-0.4451,P5,0.1929,P68,-2.488,P12,-232.7,P31,-0.9341,P3,0.4043,P68,84.44,P46
8043,C94,,64.3%,Max,344.6,P2,0.5428,P4,23.07,P17,0.1076,P4,-81.71,P48,0.9065,P2,23.07,P17,226.0,P31
8043,C94,,64.3%,Min,-560.9,P3,-0.4451,P5,2.179,P68,-2.488,P12,-226.0,P31,-0.8999,P3,2.208,P68,81.71,P48
8043,C94,,67.9%,Max,344.6,P2,0.5428,P4,25.75,P17,0.1076,P4,-75.83,P48,0.8379,P2,25.75,P17,218.3,P31
8043,C94,,67.9%,Min,-560.9,P3,-0.4451,P5,4.165,P68,-2.488,P12,-218.3,P31,-0.8657,P3,4.180,P68,75.83,P48
8043,C94,,71.4%,Max,344.6,P2,0.5428,P4,28.43,P17,0.1076,P4,-69.26,P48,0.7693,P2,28.43,P17,209.7,P31
8043,C94,,71.4%,Min,-560.9,P3,-0.4451,P5,6.151,P68,-2.488,P12,-209.7,P31,-0.8314,P3,6.162,P68,69.26,P48
8043,C94,,71.4%,Max,326.6,P2,1.644,P2,92.38,P29,-8.966,P67,-66.05,P48,1.793,P2,92.38,P29,203.4,P8
8043,C94,,71.4%,Min,-522.7,P3,-1.470,P3,32.28,P58,-23.97,P24,-203.4,P8,-1.714,P3,32.28,P58,66.05,P48
8043,C94,,75.0%,Max,326.6,P2,1.644,P2,95.06,P29,-8.966,P67,-50.26,P48,1.450,P2,95.06,P29,171.9,P30
8043,C94,,75.0%,Min,-522.7,P3,-1.470,P3,34.26,P58,-23.97,P24,-171.9,P30,-1.432,P3,34.26,P58,50.26,P48
8043,C94,,78.6%,Max,326.6,P2,1.644,P2,97.74,P29,-8.966,P67,-33.76,P48,1.106,P2,97.74,P29,139.9,P30
8043,C94,,78.6%,Min,-522.7,P3,-1.470,P3,36.25,P58,-23.97,P24,-139.9,P30,-1.150,P3,36.25,P58,33.76,P48
8043,C94,,82.1%,Max,326.6,P2,1.644,P2,100.4,P29,-8.966,P67,-16.57,P48,0.7632,P2,100.4,P29,107.2,P32
8043,C94,,82.1%,Min,-522.7,P3,-1.470,P3,38.24,P58,-23.97,P24,-107.2,P32,-0.8677,P3,38.24,P58,16.57,P48
8043,C94,,85.7%,Max,326.6,P2,1.644,P2,103.1,P29,-8.966,P67,1.316,P48,0.4199,P2,103.1,P29,73.89,P20
8043,C94,,85.7%,Min,-522.7,P3,-1.470,P3,40.22,P58,-23.97,P24,-73.89,P20,-0.5855,P3,40.22,P58,1.269,P49
8043,C94,,85.7%,Max,291.0,P2,5.666,P2,116.0,P29,-6.718,P67,8.281,P48,3.826,P2,116.0,P29,66.81,P20
8043,C94,,85.7%,Min,-466.1,P3,-3.924,P3,44.95,P46,-19.69,P24,-66.80,P20,-2.991,P3,44.97,P46,1.571,P77
8043,C94,,89.3%,Max,291.0,P2,5.666,P2,118.6,P29,-6.718,P67,27.74,P48,3.514,P2,118.7,P29,32.76,P3
8043,C94,,89.3%,Min,-466.1,P3,-3.924,P3,46.94,P46,-19.69,P24,-32.60,P3,-3.292,P3,46.96,P46,0.5210,P75
8043,C94,,92.9%,Max,291.0,P2,5.666,P2,121.3,P29,-6.718,P67,52.46,P13,3.203,P2,121.3,P29,52.46,P13
8043,C94,,92.9%,Min,-466.1,P3,-3.924,P3,48.92,P46,-19.69,P24,-14.36,P68,-3.593,P3,48.94,P46,0.2472,P45
8043,C94,,96.4%,Max,291.0,P2,5.666,P2,124.0,P29,-6.718,P67,92.27,P13,2.891,P2,124.0,P29,92.28,P13
8043,C94,,96.4%,Min,-466.1,P3,-3.924,P3,50.91,P46,-19.69,P24,3.406,P68,-3.894,P3,50.93,P46,3.406,P68
8043,C94,4971,100.0%,Max,291.0,P2,5.666,P2,126.7,P29,-6.718,P67,133.0,P13,2.579,P2,126.7,P29,133.1,P13
8043,C94,4971,100.0%,Min,-466.1,P3,-3.924,P3,52.89,P46,-19.69,P24,21.87,P68,-4.195,P3,52.92,P46,21.87,P68
8276,C94,7134,0.0%,Max,124.9,P2,0.7411,P4,-10.37,P2,1.524,P8,3.368,P4,0.6319,P4,34.77,P8,19.03,P5
8276,C94,7134,0.0%,Min,-140.5,P3,-0.3063,P5,-34.76,P8,0.4488,P3,-19.03,P5,-0.2098,P5,10.40,P2,1.403,P2
8276,C94,,8.3%,Max,124.9,P2,0.7411,P4,-9.019,P2,1.524,P8,-1.509,P4,0.5231,P4,32.94,P8,26.07,P5
8276,C94,,8.3%,Min,-140.5,P3,-0.3063,P5,-32.93,P8,0.4488,P3,-26.07,P5,-0.2402,P5,9.043,P2,1.598,P4
8276,C94,,16.7%,Max,124.9,P2,0.7411,P4,-7.663,P2,1.524,P8,-5.737,P2,0.4143,P4,31.11,P8,35.70,P24
8276,C94,,16.7%,Min,-140.5,P3,-0.3063,P5,-31.10,P8,0.4488,P3,-35.70,P24,-0.2705,P5,7.692,P2,5.749,P2
8276,C94,,25.0%,Max,124.9,P2,0.7411,P4,-6.306,P2,1.524,P8,-8.600,P2,0.3055,P4,29.28,P8,45.27,P24
8276,C94,,25.0%,Min,-140.5,P3,-0.3063,P5,-29.27,P8,0.4488,P3,-45.27,P24,-0.3009,P5,6.342,P2,8.604,P2
8276,C94,,33.3%,Max,124.9,P2,0.7411,P4,-4.950,P2,1.524,P8,-11.03,P2,0.1966,P4,27.44,P8,54.26,P24
8276,C94,,33.3%,Min,-140.5,P3,-0.3063,P5,-27.44,P8,0.4488,P3,-54.26,P24,-0.3312,P5,4.995,P2,11.03,P2
8276,C94,,33.3%,Max,135.6,P2,0.5455,P2,-2.385,P2,0.05481,P4,-13.52,P2,0.4689,P4,12.43,P8,61.71,P24
8276,C94,,33.3%,Min,-141.8,P3,-0.3005,P3,-12.43,P8,-0.7167,P5,-61.71,P24,-0.2301,P5,2.446,P2,13.53,P2
8276,C94,,41.7%,Max,135.6,P2,0.5455,P2,-1.029,P2,0.05481,P4,-14.35,P2,0.4150,P4,10.60,P8,65.31,P24
8276,C94,,41.7%,Min,-141.8,P3,-0.3005,P3,-10.59,P8,-0.7167,P5,-65.31,P24,-0.2548,P5,1.164,P2,14.35,P2
8276,C94,,50.0%,Max,135.6,P2,0.5455,P2,0.3277,P2,0.05481,P4,-14.74,P2,0.3703,P2,8.968,P3,68.32,P24
8276,C94,,50.0%,Min,-141.8,P3,-0.3005,P3,-8.962,P3,-0.7167,P5,-68.32,P24,-0.2885,P3,0.6363,P2,14.74,P2
8276,C94,,58.3%,Max,135.6,P2,0.5455,P2,1.684,P2,0.05481,P4,-14.69,P2,0.3350,P2,7.612,P3,70.75,P24
8276,C94,,58.3%,Min,-141.8,P3,-0.3005,P3,-7.606,P3,-0.7167,P5,-70.75,P24,-0.3316,P3,0.5598,P4,14.70,P2
8276,C94,,66.7%,Max,135.6,P2,0.5455,P2,3.040,P2,0.05481,P4,-14.22,P2,0.2997,P2,6.257,P3,72.67,P8
8276,C94,,66.7%,Min,-141.8,P3,-0.3005,P3,-6.250,P3,-0.7167,P5,-72.67,P8,-0.3747,P3,0.1363,P81,14.22,P2
8276,C94,,66.7%,Max,144.3,P2,0.9594,P2,7.200,P6,-0.3302,P2,-12.29,P2,0.4332,P2,7.201,P6,67.74,P8
8276,C94,,66.7%,Min,-142.4,P3,-0.7332,P3,0.4961,P3,-1.364,P22,-67.74,P8,-0.3058,P3,0.8853,P3,12.30,P2
8276,C94,,75.0%,Max,144.3,P2,0.9594,P2,9.031,P6,-0.3302,P2,-11.18,P2,0.4928,P2,9.032,P6,65.35,P8
8276,C94,,75.0%,Min,-142.4,P3,-0.7332,P3,1.852,P3,-1.364,P22,-65.35,P8,-0.4378,P3,1.992,P3,11.19,P2
8276,C94,,83.3%,Max,144.3,P2,0.9594,P2,10.86,P6,-0.3302,P2,-9.630,P2,0.5524,P2,10.86,P6,62.37,P8
8276,C94,,83.3%,Min,-142.4,P3,-0.7332,P3,3.208,P3,-1.364,P22,-62.37,P8,-0.5698,P3,3.291,P3,9.645,P2
8276,C94,,91.7%,Max,144.3,P2,0.9594,P2,12.69,P6,-0.3302,P2,-7.648,P2,0.6120,P2,12.69,P6,58.81,P8
8276,C94,,91.7%,Min,-142.4,P3,-0.7332,P3,4.565,P3,-1.364,P22,-58.81,P8,-0.7019,P3,4.623,P3,7.673,P2
8276,C94,7132,100.0%,Max,144.3,P2,0.9594,P2,14.52,P6,-0.3302,P2,-5.232,P2,0.6716,P2,14.52,P6,54.66,P8
8276,C94,7132,100.0%,Min,-142.4,P3,-0.7332,P3,5.921,P3,-1.364,P22,-54.66,P8,-0.8339,P3,5.966,P3,5.275,P2
8277,C94,5216,0.0%,Max,81.65,P2,0.3975,P4,-26.19,P4,-7.963,P60,75.11,P33,0.3645,P4,72.55,P33,75.11,P33
8277,C94,5216,0.0%,Min,-130.4,P3,-0.5573,P5,-72.55,P33,-19.97,P31,23.71,P5,-0.6136,P5,26.19,P4,23.72,P5
8277,C94,,6.2%,Max,81.65,P2,0.3975,P4,-24.71,P4,-7.963,P60,50.22,P33,0.3178,P4,70.56,P33,50.22,P33
8277,C94,,6.2%,Min,-130.4,P3,-0.5573,P5,-70.56,P33,-19.97,P31,13.69,P5,-0.5112,P5,24.72,P4,13.70,P5
8277,C94,,12.5%,Max,81.65,P2,0.3975,P4,-23.24,P4,-7.963,P60,26.02,P33,0.2710,P4,68.58,P33,26.02,P33
8277,C94,,12.5%,Min,-130.4,P3,-0.5573,P5,-68.58,P33,-19.97,P31,4.174,P5,-0.4089,P5,23.24,P4,4.194,P5
8277,C94,,18.7%,Max,81.65,P2,0.3975,P4,-21.77,P4,-7.963,P60,8.281,P4,0.2267,P2,66.59,P33,8.284,P4
8277,C94,,18.7%,Min,-130.4,P3,-0.5573,P5,-66.59,P33,-19.97,P31,-4.825,P5,-0.3089,P3,21.77,P4,0.7956,P60
8277,C94,,25.0%,Max,81.65,P2,0.3975,P4,-20.29,P4,-7.963,P60,-6.076,P2,0.2026,P2,64.60,P33,21.36,P24
8277,C94,,25.0%,Min,-130.4,P3,-0.5573,P5,-64.60,P33,-19.97,P31,-21.36,P24,-0.2292,P3,20.30,P4,6.079,P2
8277,C94,,25.0%,Max,89.64,P2,0.9563,P4,-4.054,P4,-2.905,P4,-8.637,P2,0.7082,P4,21.22,P33,26.80,P25
8277,C94,,25.0%,Min,-135.9,P3,-0.8115,P5,-21.22,P33,-7.591,P24,-26.80,P25,-0.7372,P5,4.166,P4,8.646,P2
8277,C94,,31.2%,Max,89.64,P2,0.9563,P4,-2.581,P4,-2.905,P4,-10.63,P4,0.6319,P4,19.23,P33,33.46,P25
8277,C94,,31.2%,Min,-135.9,P3,-0.8115,P5,-19.23,P33,-7.591,P24,-33.46,P25,-0.7113,P5,2.752,P4,10.65,P4
8277,C94,,37.5%,Max,89.64,P2,0.9563,P4,-1.107,P4,-2.905,P4,-11.63,P4,0.5555,P4,17.24,P33,39.52,P8
8277,C94,,37.5%,Min,-135.9,P3,-0.8115,P5,-17.24,P33,-7.591,P24,-39.52,P8,-0.6853,P5,1.463,P4,11.64,P4
8277,C94,,43.7%,Max,89.64,P2,0.9563,P4,0.3667,P4,-2.905,P4,-12.12,P4,0.4792,P4,15.25,P33,45.17,P33
8277,C94,,43.7%,Min,-135.9,P3,-0.8115,P5,-15.25,P33,-7.591,P24,-45.17,P33,-0.6594,P5,1.024,P4,12.12,P4
8277,C94,,50.0%,Max,89.64,P2,0.9563,P4,1.840,P4,-2.905,P4,-12.09,P4,0.4029,P4,13.65,P5,50.13,P33
8277,C94,,50.0%,Min,-135.9,P3,-0.8115,P5,-13.63,P5,-7.591,P24,-50.13,P33,-0.6335,P5,1.423,P2,12.10,P4
8277,C94,,50.0%,Max,97.82,P2,0.7017,P4,52.71,P24,16.07,P33,-12.74,P4,0.6366,P4,52.71,P24,52.66,P33
8277,C94,,50.0%,Min,-139.2,P3,-0.5871,P5,19.82,P57,6.505,P60,-52.66,P33,-0.6350,P5,19.82,P57,12.76,P4
8277,C94,,56.2%,Max,97.82,P2,0.7017,P4,54.70,P24,16.07,P33,-3.220,P4,0.5365,P4,54.70,P24,34.43,P33
8277,C94,,56.2%,Min,-139.2,P3,-0.5871,P5,21.29,P57,6.505,P60,-34.43,P33,-0.5748,P5,21.29,P57,3.264,P4
8277,C94,,62.5%,Max,97.82,P2,0.7017,P4,56.69,P24,16.07,P33,6.815,P4,0.4364,P4,56.69,P24,21.27,P5
8277,C94,,62.5%,Min,-139.2,P3,-0.5871,P5,22.77,P57,6.505,P60,-21.26,P5,-0.5145,P5,22.77,P57,2.928,P2
8277,C94,,68.7%,Max,97.82,P2,0.7017,P4,58.68,P24,16.07,P33,17.36,P4,0.3363,P4,58.68,P24,17.37,P4
8277,C94,,68.7%,Min,-139.2,P3,-0.5871,P5,24.24,P57,6.505,P60,-11.16,P5,-0.4543,P5,24.24,P57,0.1227,P69
8277,C94,,75.0%,Max,97.82,P2,0.7017,P4,60.67,P24,16.07,P33,28.42,P4,0.2362,P4,60.67,P24,28.42,P4
8277,C94,,75.0%,Min,-139.2,P3,-0.5871,P5,25.72,P57,6.505,P60,-0.5394,P5,-0.3940,P5,25.72,P57,0.6680,P5
8277,C94,,75.0%,Max,102.1,P2,0.5126,P2,78.58,P24,13.35,P33,39.46,P24,0.2449,P2,78.58,P24,39.46,P24
8277,C94,,75.0%,Min,-136.9,P3,-0.5214,P3,32.72,P57,5.393,P5,5.575,P5,-0.2756,P3,32.72,P57,5.577,P5
8277,C94,,81.3%,Max,102.1,P2,0.5126,P2,80.57,P24,13.35,P33,67.14,P24,0.3160,P2,80.57,P24,67.14,P24
8277,C94,,81.3%,Min,-136.9,P3,-0.5214,P3,34.20,P57,5.393,P5,19.37,P5,-0.3437,P3,34.20,P57,19.37,P5
8277,C94,,87.5%,Max,102.1,P2,0.5126,P2,82.56,P24,13.35,P33,95.51,P24,0.3870,P2,82.56,P24,95.51,P24
8277,C94,,87.5%,Min,-136.9,P3,-0.5214,P3,35.67,P57,5.393,P5,33.67,P5,-0.4117,P3,35.67,P57,33.67,P5
8277,C94,,93.8%,Max,102.1,P2,0.5126,P2,84.55,P24,13.35,P33,124.6,P24,0.4581,P2,84.55,P24,124.6,P24
8277,C94,,93.8%,Min,-136.9,P3,-0.5214,P3,37.14,P57,5.393,P5,48.44,P3,-0.4797,P3,37.14,P57,48.44,P3
8277,C94,5214,100.0%,Max,102.1,P2,0.5126,P2,86.54,P24,13.35,P33,154.3,P24,0.5292,P2,86.54,P24,154.3,P24
8277,C94,5214,100.0%,Min,-136.9,P3,-0.5214,P3,38.62,P57,5.393,P5,62.74,P3,-0.5478,P3,38.62,P57,62.74,P3
8278,C94,7119,0.0%,Max,132.3,P2,0.3619,P4,-19.22,P2,1.065,P22,13.13,P4,0.2575,P4,49.40,P22,13.16,P5
8278,C94,7119,0.0%,Min,-148.9,P3,-0.7808,P5,-49.39,P22,0.3756,P5,-13.14,P5,-0.6758,P5,19.23,P2,0.2894,P31
8278,C94,,8.3%,Max,132.3,P2,0.3619,P4,-17.87,P2,1.065,P22,5.036,P4,0.2771,P4,47.57,P22,22.34,P5
8278,C94,,8.3%,Min,-148.9,P3,-0.7808,P5,-47.57,P22,0.3756,P5,-22.33,P5,-0.5614,P5,17.87,P2,3.192,P2
8278,C94,,16.7%,Max,132.3,P2,0.3619,P4,-16.52,P2,1.065,P22,-2.623,P4,0.2967,P4,45.74,P22,31.85,P24
8278,C94,,16.7%,Min,-148.9,P3,-0.7808,P5,-45.74,P22,0.3756,P5,-31.85,P24,-0.4471,P5,16.52,P2,2.640,P4
8278,C94,,25.0%,Max,132.3,P2,0.3619,P4,-15.16,P2,1.065,P22,-9.685,P2,0.3163,P4,43.91,P22,46.07,P24
8278,C94,,25.0%,Min,-148.9,P3,-0.7808,P5,-43.91,P22,0.3756,P5,-46.07,P24,-0.3328,P5,15.16,P2,9.689,P2
8278,C94,,33.3%,Max,132.3,P2,0.3619,P4,-13.81,P2,1.065,P22,-15.47,P2,0.3358,P4,42.08,P22,59.70,P24
8278,C94,,33.3%,Min,-148.9,P3,-0.7808,P5,-42.08,P22,0.3756,P5,-59.70,P24,-0.2185,P5,13.81,P2,15.48,P2
8278,C94,,33.3%,Max,145.4,P2,0.2755,P4,-15.27,P2,0.3223,P4,-19.75,P2,0.2232,P4,38.18,P22,70.29,P24
8278,C94,,33.3%,Min,-152.3,P3,-0.4946,P5,-38.18,P22,-0.5200,P5,-70.29,P24,-0.4361,P5,15.27,P2,19.75,P2
8278,C94,,41.7%,Max,145.4,P2,0.2755,P4,-13.92,P2,0.3223,P4,-24.94,P2,0.2615,P4,36.35,P22,82.09,P24
8278,C94,,41.7%,Min,-152.3,P3,-0.4946,P5,-36.35,P22,-0.5200,P5,-82.09,P24,-0.4043,P5,13.92,P2,24.94,P2
8278,C94,,50.0%,Max,145.4,P2,0.2755,P4,-12.56,P2,0.3223,P4,-29.69,P2,0.2997,P4,34.53,P22,93.31,P24
8278,C94,,50.0%,Min,-152.3,P3,-0.4946,P5,-34.53,P22,-0.5200,P5,-93.31,P24,-0.3725,P5,12.57,P2,29.69,P2
8278,C94,,58.3%,Max,145.4,P2,0.2755,P4,-11.21,P2,0.3223,P4,-34.02,P2,0.3380,P4,32.70,P22,103.9,P24
8278,C94,,58.3%,Min,-152.3,P3,-0.4946,P5,-32.70,P22,-0.5200,P5,-103.9,P24,-0.3408,P5,11.21,P2,34.02,P2
8278,C94,,66.7%,Max,145.4,P2,0.2755,P4,-9.855,P2,0.3223,P4,-37.91,P2,0.3793,P2,30.87,P22,114.0,P24
8278,C94,,66.7%,Min,-152.3,P3,-0.4946,P5,-30.87,P22,-0.5200,P5,-114.0,P24,-0.3121,P3,9.859,P2,37.91,P2
8278,C94,,66.7%,Max,157.2,P2,0.6234,P2,-10.23,P2,-0.2221,P4,-36.59,P2,0.2578,P2,24.93,P22,110.4,P24
8278,C94,,66.7%,Min,-155.1,P3,-0.8570,P3,-24.93,P22,-0.9372,P6,-110.4,P24,-0.3546,P3,10.25,P2,36.59,P2
8278,C94,,75.0%,Max,157.2,P2,0.6234,P2,-8.879,P2,-0.2221,P4,-40.29,P2,0.3996,P2,23.10,P22,117.9,P24
8278,C94,,75.0%,Min,-155.1,P3,-0.8570,P3,-23.10,P22,-0.9372,P6,-117.9,P24,-0.4217,P3,8.900,P2,40.29,P2
8278,C94,,83.3%,Max,157.2,P2,0.6234,P2,-7.524,P2,-0.2221,P4,-43.55,P2,0.5414,P2,21.27,P22,124.9,P24
8278,C94,,83.3%,Min,-155.1,P3,-0.8570,P3,-21.27,P22,-0.9372,P6,-124.9,P24,-0.4889,P3,7.550,P2,43.55,P2
8278,C94,,91.7%,Max,157.2,P2,0.6234,P2,-6.170,P2,-0.2221,P4,-46.38,P2,0.6832,P2,19.44,P22,131.3,P24
8278,C94,,91.7%,Min,-155.1,P3,-0.8570,P3,-19.44,P22,-0.9372,P6,-131.3,P24,-0.5560,P3,6.202,P2,46.38,P2
8278,C94,7112,100.0%,Max,157.2,P2,0.6234,P2,-4.816,P2,-0.2221,P4,-48.77,P2,0.8250,P2,17.62,P22,137.2,P24
8278,C94,7112,100.0%,Min,-155.1,P3,-0.8570,P3,-17.61,P22,-0.9372,P6,-137.2,P24,-0.6231,P3,4.856,P2,48.78,P2
8279,C94,7775,0.0%,Max,238.9,P2,4.682,P2,36.44,P4,-1.283,P57,202.8,P4,4.730,P2,109.6,P5,202.8,P4
8279,C94,7775,0.0%,Min,-185.7,P3,-3.049,P3,-109.6,P5,-4.975,P22,-77.89,P5,-3.314,P3,14.65,P67,22.94,P55
8279,C94,,12.5%,Max,238.9,P2,4.682,P2,38.20,P4,-1.283,P57,157.6,P4,3.991,P2,107.8,P5,157.6,P4
8279,C94,,12.5%,Min,-185.7,P3,-3.049,P3,-107.8,P5,-4.975,P22,-62.46,P5,-3.254,P3,12.89,P67,16.67,P55
8279,C94,,25.0%,Max,238.9,P2,4.682,P2,39.96,P4,-1.283,P57,113.2,P4,3.251,P2,106.1,P5,113.2,P4
8279,C94,,25.0%,Min,-185.7,P3,-3.049,P3,-106.1,P5,-4.975,P22,-46.29,P5,-3.195,P3,11.13,P67,11.13,P55
8279,C94,,37.5%,Max,238.9,P2,4.682,P2,41.73,P4,-1.283,P57,69.51,P4,2.512,P2,104.3,P5,69.53,P4
8279,C94,,37.5%,Min,-185.7,P3,-3.049,P3,-104.3,P5,-4.975,P22,-29.39,P5,-3.135,P3,9.370,P67,6.336,P55
8279,C94,,50.0%,Max,238.9,P2,4.682,P2,43.49,P4,-1.283,P57,26.56,P4,1.773,P2,102.5,P5,26.58,P4
8279,C94,,50.0%,Min,-185.7,P3,-3.049,P3,-102.5,P5,-4.975,P22,-11.75,P5,-3.076,P3,7.613,P67,2.378,P55
8279,C94,,50.0%,Max,297.7,P2,3.072,P2,48.73,P4,4.895,P33,6.020,P11,2.261,P2,98.07,P5,6.028,P11
8279,C94,,50.0%,Min,-211.0,P3,-4.630,P3,-98.01,P5,1.473,P58,-3.060,P5,-3.288,P3,3.852,P67,0.6005,P48
8279,C94,,62.5%,Max,297.7,P2,3.072,P2,50.49,P4,4.895,P33,25.14,P4,2.814,P2,96.31,P5,42.65,P5
8279,C94,,62.5%,Min,-211.0,P3,-4.630,P3,-96.25,P5,1.473,P58,-42.59,P5,-3.192,P3,2.107,P67,0.4163,P91
8279,C94,,75.0%,Max,297.7,P2,3.072,P2,52.26,P4,4.895,P33,45.62,P4,3.366,P2,94.54,P5,81.41,P5
8279,C94,,75.0%,Min,-211.0,P3,-4.630,P3,-94.48,P5,1.473,P58,-81.38,P5,-3.095,P3,0.5081,P67,0.09605,P43
8279,C94,,87.5%,Max,297.7,P2,3.072,P2,54.02,P4,4.895,P33,66.83,P4,3.919,P2,92.78,P5,119.5,P5
8279,C94,,87.5%,Min,-211.0,P3,-4.630,P3,-92.72,P5,1.473,P58,-119.4,P5,-2.999,P3,0.1584,P42,0.1210,P43
8279,C94,7482,100.0%,Max,297.7,P2,3.072,P2,55.78,P4,4.895,P33,88.78,P4,4.471,P2,91.02,P5,156.8,P5
8279,C94,7482,100.0%,Min,-211.0,P3,-4.630,P3,-90.95,P5,1.473,P58,-156.8,P5,-2.903,P3,1.091,P54,0.4822,P42
9172,C94,7717,0.0%,Max,194.0,P4,7.775,P2,-65.30,P69,2.855,P31,217.1,P25,6.103,P2,161.5,P25,217.2,P25
9172,C94,7717,0.0%,Min,-276.9,P5,-10.88,P3,-161.4,P25,0.5039,P3,82.96,P69,-7.842,P3,65.54,P69,83.07,P69
9172,C94,,6.2%,Max,194.0,P4,7.775,P2,-63.06,P69,2.855,P31,153.8,P25,6.954,P2,158.5,P25,153.8,P25
9172,C94,,6.2%,Min,-276.9,P5,-10.88,P3,-158.4,P25,0.5039,P3,57.53,P69,-7.464,P3,63.31,P69,57.57,P69
9172,C94,,12.5%,Max,194.0,P4,7.775,P2,-60.83,P69,2.855,P31,91.64,P25,7.805,P2,155.5,P25,91.64,P25
9172,C94,,12.5%,Min,-276.9,P5,-10.88,P3,-155.4,P25,0.5039,P3,32.18,P3,-7.086,P3,61.08,P69,32.94,P67
9172,C94,,18.7%,Max,194.0,P4,7.775,P2,-58.59,P69,2.855,P31,30.68,P25,8.656,P2,152.5,P25,30.81,P25
9172,C94,,18.7%,Min,-276.9,P5,-10.88,P3,-152.4,P25,0.5039,P3,5.173,P3,-6.707,P3,58.85,P69,8.471,P3
9172,C94,,25.0%,Max,194.0,P4,7.775,P2,-56.35,P69,2.855,P31,-8.053,P2,9.507,P2,149.5,P25,31.50,P31
9172,C94,,25.0%,Min,-276.9,P5,-10.88,P3,-149.3,P25,0.5039,P3,-31.50,P31,-6.329,P3,56.63,P69,10.60,P47
9172,C94,,25.0%,Max,192.1,P4,4.656,P4,-38.56,P69,6.416,P6,-17.08,P2,3.789,P4,100.3,P25,53.20,P31
9172,C94,,25.0%,Min,-274.6,P5,-5.733,P5,-100.2,P25,2.256,P93,-53.19,P31,-3.840,P5,38.72,P69,17.41,P2
9172,C94,,31.2%,Max,192.1,P4,4.656,P4,-36.32,P69,6.416,P6,-33.30,P2,4.185,P4,97.27,P25,91.45,P6
9172,C94,,31.2%,Min,-274.6,P5,-5.733,P5,-97.23,P25,2.256,P93,-91.45,P6,-3.809,P5,36.49,P69,33.54,P2
9172,C94,,37.5%,Max,192.1,P4,4.656,P4,-34.09,P69,6.416,P6,-48.64,P2,4.650,P2,94.25,P25,129.2,P6
9172,C94,,37.5%,Min,-274.6,P5,-5.733,P5,-94.20,P25,2.256,P93,-129.2,P6,-3.847,P3,34.26,P69,48.86,P2
9172,C94,,43.7%,Max,192.1,P4,4.656,P4,-31.85,P69,6.416,P6,-63.09,P2,5.293,P2,91.23,P25,165.7,P29
9172,C94,,43.7%,Min,-274.6,P5,-5.733,P5,-91.18,P25,2.256,P93,-165.7,P29,-4.064,P3,32.04,P69,63.32,P2
9172,C94,,50.0%,Max,192.1,P4,4.656,P4,-29.61,P69,6.416,P6,-75.53,P69,5.937,P2,88.21,P25,201.2,P29
9172,C94,,50.0%,Min,-274.6,P5,-5.733,P5,-88.16,P25,2.256,P93,-201.2,P29,-4.281,P3,29.81,P69,75.60,P69
9172,C94,,50.0%,Max,192.5,P4,4.201,P4,69.71,P33,-2.431,P55,-76.07,P69,3.473,P4,69.72,P33,205.5,P29
9172,C94,,50.0%,Min,-267.4,P5,-4.640,P5,19.96,P49,-6.747,P25,-205.5,P29,-2.922,P5,20.19,P49,76.09,P69
9172,C94,,56.3%,Max,192.5,P4,4.201,P4,72.73,P33,-2.431,P55,-64.28,P69,3.782,P4,72.74,P33,178.7,P29
9172,C94,,56.3%,Min,-267.4,P5,-4.640,P5,22.20,P49,-6.747,P25,-178.7,P29,-3.058,P5,22.41,P49,64.28,P69
9172,C94,,62.5%,Max,192.5,P4,4.201,P4,75.76,P33,-2.431,P55,-50.68,P2,4.092,P4,75.77,P33,150.8,P25
9172,C94,,62.5%,Min,-267.4,P5,-4.640,P5,24.44,P49,-6.747,P25,-150.8,P25,-3.193,P5,24.63,P49,50.84,P2
9172,C94,,68.8%,Max,192.5,P4,4.201,P4,78.78,P33,-2.431,P55,-36.05,P2,4.402,P4,78.79,P33,121.8,P25
9172,C94,,68.8%,Min,-267.4,P5,-4.640,P5,26.67,P49,-6.747,P25,-121.8,P25,-3.329,P5,26.85,P49,36.31,P2
9172,C94,,75.0%,Max,192.5,P4,4.201,P4,81.80,P33,-2.431,P55,-20.52,P2,4.759,P2,81.81,P33,91.57,P25
9172,C94,,75.0%,Min,-267.4,P5,-4.640,P5,28.91,P49,-6.747,P25,-91.53,P25,-3.512,P3,29.07,P49,21.07,P2
9172,C94,,75.0%,Max,190.2,P4,4.947,P4,146.0,P33,-0.4956,P2,-9.102,P2,3.831,P4,146.0,P33,69.58,P25
9172,C94,,75.0%,Min,-252.5,P5,-5.246,P5,53.08,P49,-1.899,P23,-69.58,P25,-3.096,P5,53.18,P49,9.764,P2
9172,C94,,81.3%,Max,190.2,P4,4.947,P4,149.0,P33,-0.4956,P2,19.41,P2,4.238,P4,149.0,P33,33.38,P3
9172,C94,,81.3%,Min,-252.5,P5,-5.246,P5,55.32,P49,-1.899,P23,-33.24,P3,-3.385,P5,55.41,P49,0.4728,P55
9172,C94,,87.5%,Max,190.2,P4,4.947,P4,152.1,P33,-0.4956,P2,61.80,P33,4.646,P4,152.1,P33,61.80,P33
9172,C94,,87.5%,Min,-252.5,P5,-5.246,P5,57.56,P49,-1.899,P23,-4.476,P3,-3.674,P5,57.65,P49,1.545,P49
9172,C94,,93.8%,Max,190.2,P4,4.947,P4,155.1,P33,-0.4956,P2,122.6,P33,5.054,P4,155.1,P33,122.6,P33
9172,C94,,93.8%,Min,-252.5,P5,-5.246,P5,59.79,P49,-1.899,P23,23.59,P49,-3.963,P5,59.88,P49,23.75,P49
9172,C94,6072,100.0%,Max,190.2,P4,4.947,P4,158.1,P33,-0.4956,P2,184.7,P33,5.461,P4,158.1,P33,184.7,P33
9172,C94,6072,100.0%,Min,-252.5,P5,-5.246,P5,62.03,P49,-1.899,P23,47.72,P49,-4.252,P5,62.12,P49,47.89,P49
9239,C94,6062,0.0%,Max,123.3,P2,18.05,P2,-87.59,P60,-6.993,P2,101.1,P33,13.68,P2,208.0,P31,101.1,P33
9239,C94,6062,0.0%,Min,-94.17,P3,-21.54,P3,-207.9,P31,-21.57,P33,37.19,P77,-17.31,P3,87.72,P84,37.22,P77
9239,C94,,4.2%,Max,123.3,P2,18.05,P2,-84.32,P60,-6.993,P2,29.92,P33,13.42,P2,203.5,P31,29.96,P33
9239,C94,,4.2%,Min,-94.17,P3,-21.54,P3,-203.5,P31,-21.57,P33,2.229,P3,-15.83,P3,84.46,P84,4.867,P78
9239,C94,,8.3%,Max,123.3,P2,18.05,P2,-81.05,P60,-6.993,P2,-15.80,P68,13.15,P2,199.1,P31,44.89,P6
9239,C94,,8.3%,Min,-94.17,P3,-21.54,P3,-199.1,P31,-21.57,P33,-44.89,P6,-14.36,P3,81.19,P84,15.81,P68
9239,C94,,12.5%,Max,123.3,P2,18.05,P2,-77.78,P60,-6.993,P2,-45.09,P68,12.89,P2,194.7,P31,113.0,P6
9239,C94,,12.5%,Min,-94.17,P3,-21.54,P3,-194.7,P31,-21.57,P33,-113.0,P6,-12.88,P3,77.93,P84,45.09,P68
9239,C94,,16.7%,Max,123.3,P2,18.05,P2,-74.51,P60,-6.993,P2,-73.23,P68,12.63,P2,190.3,P31,179.7,P31
9239,C94,,16.7%,Min,-94.17,P3,-21.54,P3,-190.3,P31,-21.57,P33,-179.7,P31,-11.41,P3,74.66,P84,73.24,P68
9239,C94,,16.7%,Max,111.9,P4,7.796,P2,-79.91,P60,14.75,P25,-86.44,P68,5.766,P2,183.3,P33,209.3,P6
9239,C94,,16.7%,Min,-89.40,P5,-9.977,P3,-183.2,P33,5.016,P57,-209.3,P6,-8.434,P3,79.96,P60,86.46,P68
9239,C94,,20.8%,Max,111.9,P4,7.796,P2,-76.64,P60,14.75,P25,-114.5,P92,5.690,P2,178.8,P33,271.7,P6
9239,C94,,20.8%,Min,-89.40,P5,-9.977,P3,-178.8,P33,5.016,P57,-271.6,P31,-7.600,P3,76.69,P60,114.5,P92
9239,C94,,25.0%,Max,111.9,P4,7.796,P2,-73.37,P60,14.75,P25,-140.7,P84,5.614,P2,174.4,P33,332.6,P31
9239,C94,,25.0%,Min,-89.40,P5,-9.977,P3,-174.4,P33,5.016,P57,-332.6,P31,-6.766,P3,73.42,P60,140.7,P84
9239,C94,,29.2%,Max,111.9,P4,7.796,P2,-70.10,P60,14.75,P25,-165.7,P84,5.537,P2,170.0,P33,392.0,P31
9239,C94,,29.2%,Min,-89.40,P5,-9.977,P3,-170.0,P33,5.016,P57,-392.0,P31,-5.933,P3,70.15,P60,165.7,P84
9239,C94,,33.3%,Max,111.9,P4,7.796,P2,-66.83,P60,14.75,P25,-189.5,P60,5.461,P2,165.6,P33,449.9,P31
9239,C94,,33.3%,Min,-89.40,P5,-9.977,P3,-165.6,P33,5.016,P57,-449.9,P31,-5.099,P3,66.88,P60,189.5,P60
9239,C94,,33.3%,Max,96.88,P4,4.232,P2,-37.29,P60,15.63,P25,-193.3,P84,2.562,P2,85.83,P33,458.7,P31
9239,C94,,33.3%,Min,-81.99,P5,-5.752,P3,-85.82,P33,5.393,P57,-458.7,P31,-4.073,P3,37.32,P60,193.3,P84
9239,C94,,37.5%,Max,96.88,P4,4.232,P2,-34.02,P60,15.63,P25,-205.8,P60,2.908,P2,81.41,P33,487.2,P31
9239,C94,,37.5%,Min,-81.99,P5,-5.752,P3,-81.40,P33,5.393,P57,-487.2,P31,-3.891,P3,34.05,P60,205.8,P60
9239,C94,,41.7%,Max,96.88,P4,4.232,P2,-30.75,P60,15.63,P25,-217.0,P60,3.254,P2,77.00,P33,514.2,P31
9239,C94,,41.7%,Min,-81.99,P5,-5.752,P3,-76.99,P33,5.393,P57,-514.2,P31,-3.709,P3,30.79,P60,217.0,P60
9239,C94,,45.8%,Max,96.88,P4,4.232,P2,-27.48,P60,15.63,P25,-227.1,P60,3.600,P2,72.58,P33,539.6,P31
9239,C94,,45.8%,Min,-81.99,P5,-5.752,P3,-72.57,P33,5.393,P57,-539.6,P31,-3.527,P3,27.52,P60,227.1,P60
9239,C94,,50.0%,Max,96.88,P4,4.232,P2,-24.21,P60,15.63,P25,-236.1,P60,3.946,P2,68.17,P33,563.6,P31
9239,C94,,50.0%,Min,-81.99,P5,-5.752,P3,-68.16,P33,5.393,P57,-563.6,P31,-3.345,P3,24.26,P60,236.1,P60
9239,C94,,50.0%,Max,70.80,P4,3.994,P2,18.00,P22,7.322,P25,-236.2,P60,1.787,P2,18.13,P22,563.2,P31
9239,C94,,50.0%,Min,-67.46,P5,-6.053,P3,3.097,P69,2.365,P57,-563.2,P31,-3.057,P3,3.222,P69,236.2,P60
9239,C94,,54.2%,Max,70.80,P4,3.994,P2,22.41,P22,7.322,P25,-233.5,P60,2.684,P2,22.51,P22,556.3,P31
9239,C94,,54.2%,Min,-67.46,P5,-6.053,P3,6.367,P69,2.365,P57,-556.3,P31,-3.239,P3,6.429,P69,233.5,P60
9239,C94,,58.3%,Max,70.80,P4,3.994,P2,26.82,P22,7.322,P25,-229.8,P60,3.581,P2,26.91,P22,547.8,P31
9239,C94,,58.3%,Min,-67.46,P5,-6.053,P3,9.637,P69,2.365,P57,-547.8,P31,-3.420,P3,9.678,P69,229.8,P60
9239,C94,,62.5%,Max,70.80,P4,3.994,P2,31.24,P22,7.322,P25,-224.9,P60,4.478,P2,31.31,P22,537.8,P31
9239,C94,,62.5%,Min,-67.46,P5,-6.053,P3,12.91,P69,2.365,P57,-537.8,P31,-3.602,P3,12.94,P69,224.9,P60
9239,C94,,66.7%,Max,70.80,P4,3.994,P2,35.65,P22,7.322,P25,-218.8,P60,5.375,P2,35.72,P22,526.7,P33
9239,C94,,66.7%,Min,-67.46,P5,-6.053,P3,16.18,P69,2.365,P57,-526.7,P33,-3.784,P3,16.20,P69,218.8,P60
9239,C94,,66.7%,Max,45.03,P4,4.426,P2,127.5,P30,4.008,P31,-215.8,P60,1.591,P2,127.5,P30,518.8,P33
9239,C94,,66.7%,Min,-52.53,P5,-6.650,P3,50.20,P69,0.8081,P5,-518.8,P33,-2.656,P3,50.21,P69,215.8,P60
9239,C94,,70.8%,Max,45.03,P4,4.426,P2,131.9,P30,4.008,P31,-197.0,P60,2.851,P2,131.9,P30,474.4,P33
9239,C94,,70.8%,Min,-52.53,P5,-6.650,P3,53.47,P69,0.8081,P5,-474.4,P33,-3.144,P3,53.48,P69,197.0,P60
9239,C94,,75.0%,Max,45.03,P4,4.426,P2,136.3,P30,4.008,P31,-177.1,P60,4.112,P2,136.3,P30,428.4,P33
9239,C94,,75.0%,Min,-52.53,P5,-6.650,P3,56.74,P69,0.8081,P5,-428.4,P33,-3.632,P3,56.75,P69,177.1,P60
9239,C94,,79.2%,Max,45.03,P4,4.426,P2,140.8,P30,4.008,P31,-156.0,P60,5.372,P2,140.8,P30,380.9,P33
9239,C94,,79.2%,Min,-52.53,P5,-6.650,P3,60.01,P69,0.8081,P5,-380.9,P33,-4.120,P3,60.02,P69,156.0,P60
9239,C94,,83.3%,Max,45.03,P4,4.426,P2,145.2,P30,4.008,P31,-133.8,P60,6.633,P2,145.2,P30,331.9,P33
9239,C94,,83.3%,Min,-52.53,P5,-6.650,P3,63.28,P69,0.8081,P5,-331.9,P33,-4.607,P3,63.29,P69,133.8,P60
9239,C94,,83.3%,Max,25.48,P4,7.510,P2,231.5,P30,3.207,P33,-127.3,P60,2.023,P2,231.5,P30,315.3,P33
9239,C94,,83.3%,Min,-38.21,P5,-11.08,P3,96.15,P69,0.1325,P5,-315.3,P33,-3.123,P3,96.16,P69,127.3,P60
9239,C94,,87.5%,Max,25.48,P4,7.510,P2,235.9,P30,3.207,P33,-93.02,P60,4.600,P2,235.9,P30,234.6,P33
9239,C94,,87.5%,Min,-38.21,P5,-11.08,P3,99.42,P69,0.1325,P5,-234.6,P33,-4.461,P3,99.43,P69,93.02,P60
9239,C94,,91.7%,Max,25.48,P4,7.510,P2,240.3,P30,3.207,P33,-57.60,P60,7.177,P2,240.3,P30,152.4,P33
9239,C94,,91.7%,Min,-38.21,P5,-11.08,P3,102.7,P69,0.1325,P5,-152.4,P33,-5.800,P3,102.7,P69,57.61,P60
9239,C94,,95.8%,Max,25.48,P4,7.510,P2,244.7,P30,3.207,P33,-21.05,P60,9.754,P2,244.7,P30,68.65,P33
9239,C94,,95.8%,Min,-38.21,P5,-11.08,P3,106.0,P69,0.1325,P5,-68.62,P33,-7.138,P3,106.0,P69,21.18,P60
9239,C94,7667,100.0%,Max,25.48,P4,7.510,P2,249.1,P30,3.207,P33,25.23,P24,12.33,P2,249.2,P30,25.55,P24
9239,C94,7667,100.0%,Min,-38.21,P5,-11.08,P3,109.2,P69,0.1325,P5,-0.1477,P57,-8.476,P3,109.2,P69,1.550,P57
9241,C94,6163,0.0%,Max,118.7,P2,7.961,P2,-51.34,P57,-0.6472,P4,67.17,P24,6.973,P2,115.2,P22,67.18,P24
9241,C94,6163,0.0%,Min,-136.4,P3,-8.921,P3,-115.2,P22,-2.646,P25,15.53,P3,-7.846,P3,51.48,P57,17.40,P3
9241,C94,,8.3%,Max,118.7,P2,7.961,P2,-49.07,P57,-0.6472,P4,31.76,P2,6.851,P2,112.1,P22,32.49,P2
9241,C94,,8.3%,Min,-136.4,P3,-8.921,P3,-112.1,P22,-2.646,P25,-7.397,P3,-7.339,P3,49.22,P57,5.088,P5
9241,C94,,16.7%,Max,118.7,P2,7.961,P2,-46.80,P57,-0.6472,P4,6.904,P2,6.729,P2,109.1,P22,30.20,P3
9241,C94,,16.7%,Min,-136.4,P3,-8.921,P3,-109.1,P22,-2.646,P25,-29.41,P3,-6.831,P3,46.96,P57,4.593,P4
9241,C94,,25.0%,Max,118.7,P2,7.961,P2,-44.53,P57,-0.6472,P4,-17.04,P2,6.607,P2,106.0,P22,67.81,P33
9241,C94,,25.0%,Min,-136.4,P3,-8.921,P3,-106.0,P22,-2.646,P25,-67.81,P33,-6.323,P3,44.70,P57,18.28,P2
9241,C94,,33.3%,Max,118.7,P2,7.961,P2,-42.26,P57,-0.6472,P4,-40.08,P2,6.485,P2,102.9,P22,109.1,P33
9241,C94,,33.3%,Min,-136.4,P3,-8.921,P3,-102.9,P22,-2.646,P25,-109.1,P33,-5.816,P3,42.44,P57,40.60,P2
9241,C94,,33.3%,Max,73.85,P2,5.554,P2,-3.074,P2,1.677,P24,-48.30,P2,4.376,P2,14.29,P3,125.1,P33
9241,C94,,33.3%,Min,-88.83,P3,-5.466,P3,-13.20,P3,0.2285,P57,-125.1,P33,-4.239,P3,5.235,P4,48.50,P2
9241,C94,,41.7%,Max,73.85,P2,5.554,P2,-0.8058,P2,1.677,P24,-52.17,P2,4.418,P2,12.22,P3,129.3,P31
9241,C94,,41.7%,Min,-88.83,P3,-5.466,P3,-10.93,P3,0.2285,P57,-129.3,P31,-4.316,P3,3.878,P4,52.36,P2
9241,C94,,50.0%,Max,73.85,P2,5.554,P2,1.462,P2,1.677,P24,-55.13,P2,4.461,P2,10.24,P3,132.5,P31
9241,C94,,50.0%,Min,-88.83,P3,-5.466,P3,-8.663,P3,0.2285,P57,-132.5,P31,-4.394,P3,2.666,P77,55.31,P2
9241,C94,,58.3%,Max,73.85,P2,5.554,P2,3.731,P2,1.677,P24,-56.74,P49,4.503,P2,8.413,P3,134.4,P31
9241,C94,,58.3%,Min,-88.83,P3,-5.466,P3,-6.395,P3,0.2285,P57,-134.4,P31,-4.472,P3,0.5223,P73,56.74,P49
9241,C94,,66.7%,Max,73.85,P2,5.554,P2,5.999,P2,1.677,P24,-56.65,P49,4.546,P2,8.175,P2,135.1,P31
9241,C94,,66.7%,Min,-88.83,P3,-5.466,P3,-4.127,P3,0.2285,P57,-135.1,P31,-4.549,P3,0.1801,P1,56.66,P49
9241,C94,,66.7%,Max,22.68,P2,7.302,P2,93.06,P33,4.796,P24,-51.19,P73,5.042,P2,93.07,P33,122.2,P31
9241,C94,,66.7%,Min,-37.15,P3,-7.206,P3,36.78,P60,1.488,P57,-122.2,P31,-4.928,P3,36.88,P60,51.19,P73
9241,C94,,75.0%,Max,22.68,P2,7.302,P2,96.13,P33,4.796,P24,-34.77,P2,5.444,P2,96.13,P33,84.65,P30
9241,C94,,75.0%,Min,-37.15,P3,-7.206,P3,39.05,P60,1.488,P57,-84.65,P30,-5.368,P3,39.15,P60,35.03,P4
9241,C94,,83.3%,Max,22.68,P2,7.302,P2,99.19,P33,4.796,P24,-14.23,P4,5.846,P2,99.19,P33,45.83,P30
9241,C94,,83.3%,Min,-37.15,P3,-7.206,P3,41.32,P60,1.488,P57,-45.83,P30,-5.808,P3,41.41,P60,14.67,P4
9241,C94,,91.7%,Max,22.68,P2,7.302,P2,102.3,P33,4.796,P24,7.318,P4,6.248,P2,102.3,P33,14.17,P5
9241,C94,,91.7%,Min,-37.15,P3,-7.206,P3,43.59,P60,1.488,P57,-13.64,P5,-6.249,P3,43.67,P60,1.096,P77
9241,C94,6063,100.0%,Max,22.68,P2,7.302,P2,105.3,P33,4.796,P24,38.41,P33,6.649,P2,105.3,P33,38.42,P33
9241,C94,6063,100.0%,Min,-37.15,P3,-7.206,P3,45.86,P60,1.488,P57,7.388,P5,-6.689,P3,45.94,P60,8.453,P5
9242,C94,6164,0.0%,Max,118.4,P2,8.929,P2,-50.92,P81,3.755,P25,62.56,P25,7.905,P2,111.8,P25,62.56,P25
9242,C94,6164,0.0%,Min,-128.5,P3,-8.097,P3,-111.8,P25,1.163,P81,13.79,P3,-7.146,P3,51.04,P81,15.53,P3
9242,C94,,8.3%,Max,118.4,P2,8.929,P2,-48.66,P81,3.755,P25,30.03,P2,7.394,P2,108.7,P25,30.93,P2
9242,C94,,8.3%,Min,-128.5,P3,-8.097,P3,-108.7,P25,1.163,P81,-8.499,P3,-6.970,P3,48.78,P81,4.379,P5
9242,C94,,16.7%,Max,118.4,P2,8.929,P2,-46.39,P81,3.755,P25,5.718,P2,6.884,P2,105.6,P25,30.64,P3
9242,C94,,16.7%,Min,-128.5,P3,-8.097,P3,-105.6,P25,1.163,P81,-29.88,P3,-6.793,P3,46.51,P81,4.673,P4
9242,C94,,25.0%,Max,118.4,P2,8.929,P2,-44.12,P81,3.755,P25,-17.68,P2,6.373,P2,102.6,P25,69.07,P6
9242,C94,,25.0%,Min,-128.5,P3,-8.097,P3,-102.6,P25,1.163,P81,-69.07,P6,-6.617,P3,44.25,P81,18.80,P2
9242,C94,,33.3%,Max,118.4,P2,8.929,P2,-41.85,P81,3.755,P25,-40.18,P2,5.863,P2,99.51,P25,109.2,P6
9242,C94,,33.3%,Min,-128.5,P3,-8.097,P3,-99.51,P25,1.163,P81,-109.2,P6,-6.441,P3,41.99,P81,40.60,P2
9242,C94,,33.3%,Max,71.93,P2,5.809,P2,-2.214,P2,-0.4766,P4,-50.95,P2,4.587,P2,13.95,P3,129.7,P31
9242,C94,,33.3%,Min,-82.78,P3,-6.026,P3,-12.58,P3,-1.722,P33,-129.7,P31,-4.826,P3,5.016,P4,51.16,P2
9242,C94,,41.7%,Max,71.93,P2,5.809,P2,0.05428,P2,-0.4766,P4,-54.49,P2,4.655,P2,11.95,P3,133.0,P31
9242,C94,,41.7%,Min,-82.78,P3,-6.026,P3,-10.31,P3,-1.722,P33,-133.0,P31,-4.808,P3,3.953,P4,54.69,P2
9242,C94,,50.0%,Max,71.93,P2,5.809,P2,2.322,P2,-0.4766,P4,-57.12,P2,4.723,P2,10.05,P3,135.1,P31
9242,C94,,50.0%,Min,-82.78,P3,-6.026,P3,-8.046,P3,-1.722,P33,-135.1,P31,-4.789,P3,2.086,P45,57.31,P2
9242,C94,,58.3%,Max,71.93,P2,5.809,P2,4.591,P2,-0.4766,P4,-58.84,P2,4.791,P2,8.348,P3,136.0,P31
9242,C94,,58.3%,Min,-82.78,P3,-6.026,P3,-5.777,P3,-1.722,P33,-136.0,P31,-4.770,P3,0.4609,P69,59.03,P2
9242,C94,,66.7%,Max,71.93,P2,5.809,P2,6.859,P2,-0.4766,P4,-58.44,P81,4.859,P2,8.988,P2,135.9,P8
9242,C94,,66.7%,Min,-82.78,P3,-6.026,P3,-3.509,P3,-1.722,P33,-135.9,P8,-4.751,P3,1.321,P49,58.47,P81
9242,C94,,66.7%,Max,24.40,P2,7.759,P2,90.90,P6,-2.247,P75,-52.87,P81,5.375,P2,90.91,P6,123.1,P8
9242,C94,,66.7%,Min,-37.24,P3,-8.108,P3,35.10,P61,-5.557,P8,-123.1,P8,-5.653,P3,35.37,P61,52.93,P81
9242,C94,,75.0%,Max,24.40,P2,7.759,P2,93.96,P6,-2.247,P75,-36.44,P2,5.875,P2,93.97,P6,86.47,P8
9242,C94,,75.0%,Min,-37.24,P3,-8.108,P3,37.37,P61,-5.557,P8,-86.47,P8,-6.012,P3,37.63,P61,36.91,P2
9242,C94,,83.3%,Max,24.40,P2,7.759,P2,97.02,P6,-2.247,P75,-16.86,P4,6.374,P2,97.03,P6,48.62,P8
9242,C94,,83.3%,Min,-37.24,P3,-8.108,P3,39.64,P61,-5.557,P8,-48.62,P8,-6.372,P3,39.88,P61,17.41,P4
9242,C94,,91.7%,Max,24.40,P2,7.759,P2,100.1,P6,-2.247,P75,4.088,P4,6.874,P2,100.1,P6,15.98,P5
9242,C94,,91.7%,Min,-37.24,P3,-8.108,P3,41.91,P61,-5.557,P8,-15.32,P5,-6.732,P3,42.14,P61,2.894,P81
9242,C94,6064,100.0%,Max,24.40,P2,7.759,P2,103.1,P6,-2.247,P75,33.78,P6,7.374,P2,103.2,P6,33.80,P6
9242,C94,6064,100.0%,Min,-37.24,P3,-8.108,P3,44.18,P61,-5.557,P8,5.376,P5,-7.092,P3,44.39,P61,7.171,P5
9243,C94,6177,0.0%,Max,136.7,P2,10.35,P2,-48.60,P91,0.2526,P4,-15.03,P2,9.727,P2,108.6,P6,55.05,P8
9243,C94,6177,0.0%,Min,-154.5,P3,-10.98,P3,-108.6,P6,-0.5242,P5,-55.04,P8,-10.31,P3,48.61,P91,17.90,P2
9243,C94,,8.3%,Max,136.7,P2,10.35,P2,-46.17,P91,0.2526,P4,-38.44,P2,9.440,P2,105.4,P6,100.7,P8
9243,C94,,8.3%,Min,-154.5,P3,-10.98,P3,-105.3,P6,-0.5242,P5,-100.7,P8,-9.755,P3,46.18,P91,39.58,P2
9243,C94,,16.7%,Max,136.7,P2,10.35,P2,-43.74,P91,0.2526,P4,-60.81,P2,9.154,P2,102.1,P6,145.0,P8
9243,C94,,16.7%,Min,-154.5,P3,-10.98,P3,-102.1,P6,-0.5242,P5,-145.0,P8,-9.201,P3,43.75,P91,61.23,P73
9243,C94,,25.0%,Max,136.7,P2,10.35,P2,-41.31,P91,0.2526,P4,-80.16,P73,8.868,P2,98.79,P6,187.9,P8
9243,C94,,25.0%,Min,-154.5,P3,-10.98,P3,-98.78,P6,-0.5242,P5,-187.9,P8,-8.647,P3,41.32,P91,80.16,P73
9243,C94,,33.3%,Max,136.7,P2,10.35,P2,-38.88,P91,0.2526,P4,-98.05,P73,8.581,P2,95.51,P6,229.4,P8
9243,C94,,33.3%,Min,-154.5,P3,-10.98,P3,-95.50,P6,-0.5242,P5,-229.4,P8,-8.093,P3,38.89,P91,98.05,P73
9243,C94,,33.3%,Max,107.4,P2,8.328,P2,1.396,P2,-0.08865,P4,-102.0,P73,7.121,P2,9.218,P3,238.1,P8
9243,C94,,33.3%,Min,-118.3,P3,-8.623,P3,-3.258,P3,-0.8630,P6,-238.1,P8,-7.354,P3,0.3319,P1,102.0,P73
9243,C94,,41.7%,Max,107.4,P2,8.328,P2,3.945,P8,-0.08865,P4,-102.4,P73,7.212,P2,9.165,P2,237.1,P8
9243,C94,,41.7%,Min,-118.3,P3,-8.623,P3,-0.8281,P3,-0.8630,P6,-237.1,P8,-7.318,P3,0.4327,P73,102.4,P73
9243,C94,,50.0%,Max,107.4,P2,8.328,P2,7.226,P8,-0.08865,P4,-101.8,P73,7.303,P2,10.42,P2,234.7,P8
9243,C94,,50.0%,Min,-118.3,P3,-8.623,P3,1.602,P3,-0.8630,P6,-234.7,P8,-7.283,P3,2.681,P73,101.8,P73
9243,C94,,58.3%,Max,107.4,P2,8.328,P2,10.51,P8,-0.08865,P4,-100.1,P73,7.394,P2,12.03,P2,230.9,P8
9243,C94,,58.3%,Min,-118.3,P3,-8.623,P3,4.032,P3,-0.8630,P6,-230.9,P8,-7.247,P3,5.099,P73,100.1,P73
9243,C94,,66.7%,Max,107.4,P2,8.328,P2,13.79,P8,-0.08865,P4,-97.41,P73,7.485,P2,13.89,P2,225.6,P8
9243,C94,,66.7%,Min,-118.3,P3,-8.623,P3,6.462,P3,-0.8630,P6,-225.6,P8,-7.212,P3,7.524,P73,97.41,P73
9243,C94,,66.7%,Max,56.78,P2,11.21,P2,116.5,P8,1.830,P8,-91.73,P73,8.286,P2,116.5,P8,212.4,P8
9243,C94,,66.7%,Min,-61.02,P3,-11.43,P3,48.31,P73,0.7387,P81,-212.4,P8,-8.463,P3,48.31,P73,91.73,P73
9243,C94,,75.0%,Max,56.78,P2,11.21,P2,119.8,P8,1.830,P8,-70.42,P73,9.016,P2,119.8,P8,161.6,P8
9243,C94,,75.0%,Min,-61.02,P3,-11.43,P3,50.74,P73,0.7387,P81,-161.6,P8,-9.099,P3,50.74,P73,70.42,P73
9243,C94,,83.3%,Max,56.78,P2,11.21,P2,123.0,P8,1.830,P8,-48.07,P73,9.746,P2,123.0,P8,109.4,P8
9243,C94,,83.3%,Min,-61.02,P3,-11.43,P3,53.17,P73,0.7387,P81,-109.4,P8,-9.735,P3,53.17,P73,48.07,P73
9243,C94,,91.7%,Max,56.78,P2,11.21,P2,126.3,P8,1.830,P8,-24.67,P72,10.48,P2,126.3,P8,55.78,P8
9243,C94,,91.7%,Min,-61.02,P3,-11.43,P3,55.60,P73,0.7387,P81,-55.78,P8,-10.37,P3,55.60,P73,24.67,P72
9243,C94,6123,100.0%,Max,56.78,P2,11.21,P2,129.6,P8,1.830,P8,1.133,P4,11.21,P2,129.6,P8,11.22,P2
9243,C94,6123,100.0%,Min,-61.02,P3,-11.43,P3,58.03,P73,0.7387,P81,-1.910,P5,-11.01,P3,58.03,P73,0.2772,P72
9244,C94,6172,0.0%,Max,194.3,P2,15.80,P2,-63.93,P91,0.2270,P2,38.49,P6,12.80,P2,145.1,P6,38.55,P6
9244,C94,6172,0.0%,Min,-184.5,P3,-15.60,P3,-145.1,P6,-0.6842,P3,4.019,P5,-12.59,P3,63.97,P91,7.557,P91
9244,C94,,6.3%,Max,194.3,P2,15.80,P2,-61.99,P91,0.2270,P2,3.222,P2,11.83,P2,142.5,P6,24.63,P3
9244,C94,,6.3%,Min,-184.5,P3,-15.60,P3,-142.5,P6,-0.6842,P3,-21.69,P3,-11.69,P3,62.03,P91,3.549,P73
9244,C94,,12.5%,Max,194.3,P2,15.80,P2,-60.04,P91,0.2270,P2,-21.77,P2,10.86,P2,139.9,P6,65.01,P8
9244,C94,,12.5%,Min,-184.5,P3,-15.60,P3,-139.8,P6,-0.6842,P3,-65.01,P8,-10.78,P3,60.09,P91,24.31,P4
9244,C94,,18.8%,Max,194.3,P2,15.80,P2,-58.09,P91,0.2270,P2,-46.10,P2,9.893,P2,137.2,P6,112.4,P8
9244,C94,,18.8%,Min,-184.5,P3,-15.60,P3,-137.2,P6,-0.6842,P3,-112.4,P8,-9.880,P3,58.14,P91,46.12,P73
9244,C94,,25.0%,Max,194.3,P2,15.80,P2,-56.15,P91,0.2270,P2,-66.44,P73,8.923,P2,134.6,P6,158.9,P8
9244,C94,,25.0%,Min,-184.5,P3,-15.60,P3,-134.6,P6,-0.6842,P3,-158.9,P8,-8.977,P3,56.20,P91,66.45,P73
9244,C94,,25.0%,Max,188.4,P2,9.789,P2,-22.07,P91,1.434,P6,-71.49,P73,7.558,P2,52.08,P6,170.1,P8
9244,C94,,25.0%,Min,-176.7,P3,-9.706,P3,-52.05,P6,0.2517,P84,-170.1,P8,-7.572,P3,22.14,P91,71.50,P73
9244,C94,,31.3%,Max,188.4,P2,9.789,P2,-20.13,P91,1.434,P6,-79.75,P73,7.123,P2,49.45,P6,187.0,P8
9244,C94,,31.3%,Min,-176.7,P3,-9.706,P3,-49.43,P6,0.2517,P84,-187.0,P8,-7.166,P3,20.20,P91,79.76,P73
9244,C94,,37.5%,Max,188.4,P2,9.789,P2,-18.18,P91,1.434,P6,-87.35,P73,6.688,P2,46.83,P6,203.0,P8
9244,C94,,37.5%,Min,-176.7,P3,-9.706,P3,-46.80,P6,0.2517,P84,-203.0,P8,-6.760,P3,18.26,P91,87.35,P73
9244,C94,,43.8%,Max,188.4,P2,9.789,P2,-16.24,P91,1.434,P6,-94.27,P73,6.254,P2,44.20,P6,218.2,P8
9244,C94,,43.8%,Min,-176.7,P3,-9.706,P3,-44.17,P6,0.2517,P84,-218.2,P8,-6.353,P3,16.32,P91,94.27,P73
9244,C94,,50.0%,Max,188.4,P2,9.789,P2,-14.29,P91,1.434,P6,-100.5,P73,5.819,P2,41.58,P6,232.4,P8
9244,C94,,50.0%,Min,-176.7,P3,-9.706,P3,-41.54,P6,0.2517,P84,-232.4,P8,-5.947,P3,14.39,P91,100.5,P73
9244,C94,,50.0%,Max,147.9,P2,12.16,P2,39.52,P31,4.119,P8,-103.6,P73,8.212,P2,39.54,P31,238.7,P8
9244,C94,,50.0%,Min,-137.0,P3,-12.55,P3,14.96,P3,1.452,P3,-238.7,P8,-8.559,P3,15.51,P49,103.6,P73
9244,C94,,56.3%,Max,147.9,P2,12.16,P2,42.15,P31,4.119,P8,-97.83,P73,8.346,P2,42.16,P31,224.7,P8
9244,C94,,56.3%,Min,-137.0,P3,-12.55,P3,16.91,P3,1.452,P3,-224.7,P8,-8.555,P3,17.44,P49,97.83,P73
9244,C94,,62.5%,Max,147.9,P2,12.16,P2,44.78,P31,4.119,P8,-91.41,P73,8.479,P2,44.79,P31,209.9,P8
9244,C94,,62.5%,Min,-137.0,P3,-12.55,P3,18.85,P3,1.452,P3,-209.9,P8,-8.551,P3,19.38,P49,91.41,P73
9244,C94,,68.8%,Max,147.9,P2,12.16,P2,47.40,P31,4.119,P8,-84.32,P73,8.612,P2,47.41,P31,194.2,P8
9244,C94,,68.8%,Min,-137.0,P3,-12.55,P3,20.80,P3,1.452,P3,-194.2,P8,-8.547,P3,21.31,P49,84.32,P73
9244,C94,,75.0%,Max,147.9,P2,12.16,P2,50.03,P31,4.119,P8,-76.51,P80,8.745,P2,50.04,P31,177.5,P8
9244,C94,,75.0%,Min,-137.0,P3,-12.55,P3,22.74,P3,1.452,P3,-177.5,P8,-8.543,P3,23.25,P49,76.56,P73
9244,C94,,75.0%,Max,77.95,P2,23.30,P2,118.6,P8,0.9557,P2,-71.69,P73,13.18,P2,118.7,P8,165.5,P8
9244,C94,,75.0%,Min,-71.01,P3,-24.49,P3,49.43,P73,-0.01838,P3,-165.5,P8,-13.86,P3,49.43,P73,71.69,P73
9244,C94,,81.3%,Max,77.95,P2,23.30,P2,121.2,P8,0.9557,P2,-54.32,P80,14.86,P2,121.3,P8,124.2,P8
9244,C94,,81.3%,Min,-71.01,P3,-24.49,P3,51.37,P73,-0.01838,P3,-124.2,P8,-15.13,P3,51.38,P73,54.32,P73
9244,C94,,87.5%,Max,77.95,P2,23.30,P2,123.8,P8,0.9557,P2,-36.22,P81,16.54,P2,123.9,P8,81.99,P8
9244,C94,,87.5%,Min,-71.01,P3,-24.49,P3,53.32,P73,-0.01838,P3,-81.99,P8,-16.39,P3,53.32,P73,36.23,P81
9244,C94,,93.8%,Max,77.95,P2,23.30,P2,126.5,P8,0.9557,P2,-16.55,P2,18.22,P2,126.5,P8,38.99,P25
9244,C94,,93.8%,Min,-71.01,P3,-24.49,P3,55.27,P73,-0.01838,P3,-38.93,P23,-17.66,P3,55.27,P73,17.41,P69
9244,C94,6125,100.0%,Max,77.95,P2,23.30,P2,129.1,P8,0.9557,P2,5.145,P8,19.90,P2,129.2,P8,20.33,P2
9244,C94,6125,100.0%,Min,-71.01,P3,-24.49,P3,57.21,P73,-0.01838,P3,0.5063,P5,-18.93,P3,57.22,P73,1.854,P73
9245,C94,6068,0.0%,Max,102.4,P9,8.284,P81,-79.50,P72,-3.745,P2,10.40,P2,6.315,P81,185.9,P33,15.71,P3
9245,C94,6068,0.0%,Min,-64.23,P81,-14.09,P3,-185.9,P33,-14.98,P32,-11.35,P3,-11.37,P84,79.62,P72,1.199,P21
9245,C94,,5.0%,Max,102.4,P9,8.284,P81,-75.97,P72,-3.745,P2,-24.08,P2,6.405,P2,181.1,P33,66.31,P33
9245,C94,,5.0%,Min,-64.23,P81,-14.09,P3,-181.1,P33,-14.98,P32,-66.30,P33,-10.00,P3,76.09,P72,24.92,P2
9245,C94,,10.0%,Max,102.4,P9,8.284,P81,-72.44,P72,-3.745,P2,-55.85,P85,7.769,P2,176.4,P33,133.3,P33
9245,C94,,10.0%,Min,-64.23,P81,-14.09,P3,-176.3,P33,-14.98,P32,-133.3,P33,-9.143,P3,72.57,P72,55.86,P85
9245,C94,,15.0%,Max,102.4,P9,8.284,P81,-68.91,P72,-3.745,P2,-84.20,P61,9.133,P2,171.6,P33,198.5,P33
9245,C94,,15.0%,Min,-64.23,P81,-14.09,P3,-171.6,P33,-14.98,P32,-198.5,P33,-8.282,P3,69.04,P72,84.26,P61
9245,C94,,20.0%,Max,102.4,P9,8.284,P81,-65.38,P72,-3.745,P2,-111.0,P61,10.50,P2,166.8,P33,262.0,P33
9245,C94,,20.0%,Min,-64.23,P81,-14.09,P3,-166.8,P33,-14.98,P32,-262.0,P33,-7.422,P3,65.52,P72,111.2,P61
9245,C94,,20.0%,Max,111.3,P9,9.429,P2,-44.95,P2,3.034,P4,-117.7,P61,6.078,P2,100.6,P33,277.2,P33
9245,C94,,20.0%,Min,-63.29,P81,-11.69,P3,-100.6,P33,-0.3411,P5,-277.2,P33,-8.706,P3,45.61,P49,117.8,P61
9245,C94,,25.0%,Max,111.3,P9,9.429,P2,-41.42,P2,3.034,P4,-134.3,P61,6.798,P2,95.84,P33,314.0,P33
9245,C94,,25.0%,Min,-63.29,P81,-11.69,P3,-95.84,P33,-0.3411,P5,-314.0,P33,-8.579,P3,42.08,P49,134.3,P61
9245,C94,,30.0%,Max,111.3,P9,9.429,P2,-37.89,P2,3.034,P4,-149.6,P61,7.518,P2,91.07,P33,349.1,P33
9245,C94,,30.0%,Min,-63.29,P81,-11.69,P3,-91.07,P33,-0.3411,P5,-349.1,P33,-8.453,P3,38.56,P49,149.6,P61
9245,C94,,35.0%,Max,111.3,P9,9.429,P2,-34.36,P2,3.034,P4,-163.5,P61,8.238,P2,86.31,P33,382.3,P33
9245,C94,,35.0%,Min,-63.29,P81,-11.69,P3,-86.30,P33,-0.3411,P5,-382.3,P33,-8.326,P3,35.03,P49,163.5,P61
9245,C94,,40.0%,Max,111.3,P9,9.429,P2,-30.83,P2,3.034,P4,-176.1,P61,8.958,P2,81.54,P33,413.8,P33
9245,C94,,40.0%,Min,-63.29,P81,-11.69,P3,-81.54,P33,-0.3411,P5,-413.8,P33,-8.200,P3,31.50,P49,176.1,P61
9245,C94,,40.0%,Max,103.0,P84,6.279,P2,-9.227,P2,12.25,P6,-177.3,P61,3.555,P2,22.44,P33,415.8,P33
9245,C94,,40.0%,Min,-59.73,P81,-8.790,P3,-22.42,P33,3.524,P82,-415.8,P33,-6.141,P3,10.90,P70,177.3,P61
9245,C94,,45.0%,Max,103.0,P84,6.279,P2,-5.697,P2,12.25,P6,-180.7,P61,4.483,P2,17.68,P33,423.3,P33
9245,C94,,45.0%,Min,-59.73,P81,-8.790,P3,-17.65,P33,3.524,P82,-423.3,P33,-6.128,P3,7.383,P71,180.7,P61
9245,C94,,50.0%,Max,103.0,P84,6.279,P2,-2.167,P2,12.25,P6,-182.8,P61,5.412,P2,12.93,P33,429.0,P33
9245,C94,,50.0%,Min,-59.73,P81,-8.790,P3,-12.89,P33,3.524,P82,-429.0,P33,-6.114,P3,3.875,P75,182.8,P61
9245,C94,,55.0%,Max,103.0,P84,6.279,P2,1.363,P2,12.25,P6,-183.6,P61,6.340,P2,10.24,P3,432.9,P33
9245,C94,,55.0%,Min,-59.73,P81,-8.790,P3,-8.120,P33,3.524,P82,-432.9,P33,-6.101,P3,0.5518,P43,183.6,P61
9245,C94,,60.0%,Max,103.0,P84,6.279,P2,4.893,P2,12.25,P6,-183.1,P61,7.269,P2,8.958,P3,435.1,P33
9245,C94,,60.0%,Min,-59.73,P81,-8.790,P3,-3.354,P33,3.524,P82,-435.1,P33,-6.088,P3,1.502,P7,183.1,P61
9245,C94,,60.0%,Max,89.67,P84,7.356,P2,115.4,P22,9.997,P6,-178.8,P61,3.814,P2,115.4,P22,423.4,P33
9245,C94,,60.0%,Min,-50.97,P81,-10.18,P3,47.05,P77,2.025,P82,-423.4,P33,-6.162,P3,47.08,P77,178.8,P61
9245,C94,,65.0%,Max,89.67,P84,7.356,P2,120.2,P22,9.997,P6,-160.2,P61,5.175,P2,120.2,P22,379.2,P33
9245,C94,,65.0%,Min,-50.97,P81,-10.18,P3,50.58,P77,2.025,P82,-379.2,P33,-6.465,P3,50.61,P77,160.2,P61
9245,C94,,70.0%,Max,89.67,P84,7.356,P2,124.9,P22,9.997,P6,-140.3,P61,6.536,P2,125.0,P22,333.3,P33
9245,C94,,70.0%,Min,-50.97,P81,-10.18,P3,54.11,P77,2.025,P82,-333.3,P33,-6.768,P3,54.13,P77,140.3,P61
9245,C94,,75.0%,Max,89.67,P84,7.356,P2,129.7,P22,9.997,P6,-119.0,P61,7.897,P2,129.7,P22,285.5,P33
9245,C94,,75.0%,Min,-50.97,P81,-10.18,P3,57.64,P77,2.025,P82,-285.5,P33,-7.072,P3,57.66,P77,119.1,P61
9245,C94,,80.0%,Max,89.67,P84,7.356,P2,134.5,P22,9.997,P6,-95.22,P2,9.258,P2,134.5,P22,236.0,P33
9245,C94,,80.0%,Min,-50.97,P81,-10.18,P3,61.17,P77,2.025,P82,-236.0,P33,-7.375,P3,61.19,P77,95.67,P2
9245,C94,,80.0%,Max,77.34,P84,15.79,P2,204.2,P33,17.33,P6,-86.44,P2,7.656,P2,204.2,P33,216.2,P33
9245,C94,,80.0%,Min,-43.09,P81,-21.70,P3,85.10,P61,5.349,P84,-216.2,P33,-11.40,P3,85.43,P61,86.78,P2
9245,C94,,85.0%,Max,77.34,P84,15.79,P2,209.0,P33,17.33,P6,-50.31,P2,11.05,P2,209.0,P33,138.7,P33
9245,C94,,85.0%,Min,-43.09,P81,-21.70,P3,88.63,P61,5.349,P84,-138.7,P33,-12.58,P3,88.95,P61,51.50,P2
9245,C94,,90.0%,Max,77.34,P84,15.79,P2,213.8,P33,17.33,P6,-12.84,P2,14.44,P2,213.8,P33,60.04,P21
9245,C94,,90.0%,Min,-43.09,P81,-21.70,P3,92.16,P61,5.349,P84,-60.04,P21,-13.75,P3,92.47,P61,19.32,P2
9245,C94,,95.0%,Max,77.34,P84,15.79,P2,218.5,P33,17.33,P6,29.95,P24,17.83,P2,218.5,P33,31.48,P2
9245,C94,,95.0%,Min,-43.09,P81,-21.70,P3,95.69,P61,5.349,P84,-3.881,P3,-14.92,P3,95.99,P61,0.4410,P80
9245,C94,7118,100.0%,Max,77.34,P84,15.79,P2,223.3,P33,17.33,P6,112.1,P24,21.21,P2,223.3,P33,112.3,P24
9245,C94,7118,100.0%,Min,-43.09,P81,-21.70,P3,99.22,P61,5.349,P84,34.68,P57,-16.09,P3,99.50,P61,34.74,P57
9246,C94,6067,0.0%,Max,211.6,P2,11.37,P70,-79.81,P49,19.46,P32,20.35,P21,8.008,P80,186.2,P33,22.38,P9
9246,C94,6067,0.0%,Min,-128.6,P3,-24.03,P9,-186.1,P33,7.357,P3,2.962,P3,-18.29,P9,79.97,P49,4.203,P49
9246,C94,,3.6%,Max,211.6,P2,11.37,P70,-76.37,P49,19.46,P32,-19.51,P57,9.488,P2,181.6,P33,51.13,P8
9246,C94,,3.6%,Min,-128.6,P3,-24.03,P9,-181.4,P33,7.357,P3,-50.68,P24,-15.43,P3,76.54,P49,19.72,P57
9246,C94,,7.1%,Max,211.6,P2,11.37,P70,-72.94,P49,19.46,P32,-49.69,P4,11.38,P2,177.0,P33,114.4,P8
9246,C94,,7.1%,Min,-128.6,P3,-24.03,P9,-176.8,P33,7.357,P3,-114.4,P8,-13.21,P3,73.10,P49,50.38,P81
9246,C94,,10.7%,Max,211.6,P2,11.37,P70,-69.50,P49,19.46,P32,-77.28,P77,13.91,P4,172.3,P33,176.9,P32
9246,C94,,10.7%,Min,-128.6,P3,-24.03,P9,-172.2,P33,7.357,P3,-176.8,P32,-11.61,P5,69.67,P49,77.50,P77
9246,C94,,14.3%,Max,211.6,P2,11.37,P70,-66.06,P49,19.46,P32,-102.2,P77,16.81,P9,167.7,P33,238.9,P32
9246,C94,,14.3%,Min,-128.6,P3,-24.03,P9,-167.5,P33,7.357,P3,-238.9,P32,-10.17,P5,66.24,P49,102.7,P53
9246,C94,,14.3%,Max,240.2,P2,1.815,P81,-48.00,P49,19.10,P32,-106.8,P77,2.856,P4,121.5,P33,250.0,P32
9246,C94,,14.3%,Min,-140.9,P3,-3.534,P84,-121.5,P33,6.691,P76,-250.0,P32,-4.819,P5,48.01,P49,106.9,P77
9246,C94,,17.9%,Max,240.2,P2,1.815,P81,-44.57,P49,19.10,P32,-124.0,P49,2.753,P4,116.8,P33,293.5,P33
9246,C94,,17.9%,Min,-140.9,P3,-3.534,P84,-116.8,P33,6.691,P76,-293.5,P33,-3.918,P5,44.57,P49,124.0,P49
9246,C94,,21.4%,Max,240.2,P2,1.815,P81,-41.13,P49,19.10,P32,-139.6,P49,2.650,P4,112.2,P33,335.3,P33
9246,C94,,21.4%,Min,-140.9,P3,-3.534,P84,-112.2,P33,6.691,P76,-335.3,P33,-3.018,P5,41.14,P49,139.6,P49
9246,C94,,25.0%,Max,240.2,P2,1.815,P81,-37.69,P49,19.10,P32,-154.0,P49,3.366,P93,107.5,P33,375.4,P33
9246,C94,,25.0%,Min,-140.9,P3,-3.534,P84,-107.5,P33,6.691,P76,-375.4,P33,-2.921,P72,37.70,P49,154.0,P49
9246,C94,,28.6%,Max,240.2,P2,1.815,P81,-34.25,P49,19.10,P32,-167.2,P49,4.447,P9,102.9,P33,413.9,P33
9246,C94,,28.6%,Min,-140.9,P3,-3.534,P84,-102.9,P33,6.691,P76,-413.9,P33,-3.054,P71,34.26,P49,167.2,P49
9246,C94,,28.6%,Max,222.6,P2,3.621,P4,-3.824,P2,10.68,P8,-168.4,P49,2.452,P4,28.24,P21,417.9,P33
9246,C94,,28.6%,Min,-120.2,P3,-4.756,P5,-28.22,P21,2.918,P79,-417.9,P33,-3.901,P5,4.700,P2,168.4,P49
9246,C94,,32.1%,Max,222.6,P2,3.621,P4,-0.3858,P2,10.68,P8,-169.5,P49,2.630,P4,23.60,P21,426.0,P33
9246,C94,,32.1%,Min,-120.2,P3,-4.756,P5,-23.58,P21,2.918,P79,-426.0,P33,-3.664,P5,2.229,P41,169.5,P49
9246,C94,,35.7%,Max,222.6,P2,3.621,P4,3.053,P2,10.68,P8,-169.3,P49,2.808,P4,18.97,P21,432.4,P33
9246,C94,,35.7%,Min,-120.2,P3,-4.756,P5,-18.94,P21,2.918,P79,-432.4,P33,-3.427,P5,0.9723,P89,169.3,P49
9246,C94,,39.3%,Max,222.6,P2,3.621,P4,6.491,P2,10.68,P8,-167.8,P49,2.985,P4,14.33,P21,437.1,P33
9246,C94,,39.3%,Min,-120.2,P3,-4.756,P5,-14.30,P21,2.918,P79,-437.1,P33,-3.191,P5,0.2930,P79,167.8,P49
9246,C94,,42.9%,Max,222.6,P2,3.621,P4,9.930,P2,10.68,P8,-165.1,P49,3.163,P4,10.30,P2,440.2,P33
9246,C94,,42.9%,Min,-120.2,P3,-4.756,P5,-9.655,P21,2.918,P79,-440.2,P33,-2.954,P5,0.6567,P31,165.1,P49
9246,C94,,42.9%,Max,204.5,P2,3.191,P4,65.44,P25,2.167,P9,-163.1,P49,1.515,P2,65.46,P25,437.1,P33
9246,C94,,42.9%,Min,-96.93,P3,-4.541,P5,11.35,P69,-1.497,P79,-437.1,P33,-3.024,P3,11.43,P69,163.1,P49
9246,C94,,46.4%,Max,204.5,P2,3.191,P4,70.08,P25,2.167,P9,-150.7,P49,2.061,P2,70.10,P25,416.9,P33
9246,C94,,46.4%,Min,-96.93,P3,-4.541,P5,14.79,P69,-1.497,P79,-416.9,P33,-3.077,P3,14.85,P69,150.7,P49
9246,C94,,50.0%,Max,204.5,P2,3.191,P4,74.72,P25,2.167,P9,-137.0,P49,2.669,P4,74.74,P25,395.0,P33
9246,C94,,50.0%,Min,-96.93,P3,-4.541,P5,18.23,P69,-1.497,P79,-395.0,P33,-3.192,P5,18.28,P69,137.0,P49
9246,C94,,53.6%,Max,204.5,P2,3.191,P4,79.36,P25,2.167,P9,-122.0,P49,3.334,P4,79.38,P25,371.5,P33
9246,C94,,53.6%,Min,-96.93,P3,-4.541,P5,21.67,P69,-1.497,P79,-371.5,P33,-3.364,P5,21.71,P69,122.0,P49
9246,C94,,57.1%,Max,204.5,P2,3.191,P4,84.00,P25,2.167,P9,-105.8,P49,3.999,P4,84.02,P25,346.2,P33
9246,C94,,57.1%,Min,-96.93,P3,-4.541,P5,25.11,P69,-1.497,P79,-346.2,P33,-3.536,P5,25.14,P69,105.8,P49
9246,C94,,57.1%,Max,198.4,P2,4.463,P2,166.6,P25,-2.527,P84,-100.9,P49,2.143,P2,166.6,P25,337.4,P33
9246,C94,,57.1%,Min,-90.57,P57,-6.498,P3,53.72,P57,-13.75,P6,-337.4,P33,-3.925,P3,53.74,P57,100.9,P49
9246,C94,,60.7%,Max,198.4,P2,4.463,P2,171.2,P25,-2.527,P84,-71.93,P49,3.076,P2,171.3,P25,285.8,P21
9246,C94,,60.7%,Min,-90.57,P57,-6.498,P3,57.16,P57,-13.75,P6,-285.8,P21,-4.115,P3,57.17,P57,71.94,P49
9246,C94,,64.3%,Max,198.4,P2,4.463,P2,175.9,P25,-2.527,P84,-41.74,P49,4.010,P2,175.9,P25,235.9,P21
9246,C94,,64.3%,Min,-90.57,P57,-6.498,P3,60.59,P57,-13.75,P6,-235.9,P21,-4.306,P3,60.61,P57,41.74,P49
9246,C94,,67.9%,Max,198.4,P2,4.463,P2,180.5,P25,-2.527,P84,-10.29,P49,4.943,P2,180.5,P25,184.3,P21
9246,C94,,67.9%,Min,-90.57,P57,-6.498,P3,64.03,P57,-13.75,P6,-184.3,P21,-4.496,P3,64.05,P57,10.32,P49
9246,C94,,71.4%,Max,198.4,P2,4.463,P2,185.2,P25,-2.527,P84,26.15,P2,5.877,P2,185.2,P25,131.0,P21
9246,C94,,71.4%,Min,-90.57,P57,-6.498,P3,67.47,P57,-13.75,P6,-131.0,P21,-4.686,P3,67.49,P57,5.047,P88
9246,C94,,71.4%,Max,202.6,P2,6.475,P2,272.9,P25,-6.697,P84,31.75,P2,4.106,P2,272.9,P25,124.3,P21
9246,C94,,71.4%,Min,-120.2,P57,-8.692,P3,95.32,P57,-26.14,P6,-124.3,P21,-6.530,P3,95.35,P57,3.088,P71
9246,C94,,75.0%,Max,202.6,P2,6.475,P2,277.5,P25,-6.697,P84,92.61,P13,4.665,P2,277.5,P25,92.66,P13
9246,C94,,75.0%,Min,-120.2,P57,-8.692,P3,98.76,P57,-26.14,P6,-65.42,P69,-6.280,P3,98.79,P57,0.5102,P33
9246,C94,,78.6%,Max,202.6,P2,6.475,P2,282.2,P25,-6.697,P84,186.7,P13,5.224,P2,282.2,P25,186.7,P13
9246,C94,,78.6%,Min,-120.2,P57,-8.692,P3,102.2,P57,-26.14,P6,-28.46,P69,-6.030,P3,102.2,P57,14.95,P93
9246,C94,,82.1%,Max,202.6,P2,6.475,P2,286.8,P25,-6.697,P84,287.8,P25,5.784,P2,286.8,P25,287.8,P25
9246,C94,,82.1%,Min,-120.2,P57,-8.692,P3,105.6,P57,-26.14,P6,9.754,P69,-5.779,P3,105.7,P57,9.755,P69
9246,C94,,85.7%,Max,202.6,P2,6.475,P2,291.4,P25,-6.697,P84,393.4,P25,6.343,P2,291.5,P25,393.4,P25
9246,C94,,85.7%,Min,-120.2,P57,-8.692,P3,109.1,P57,-26.14,P6,49.23,P69,-5.529,P3,109.1,P57,49.23,P69
9246,C94,,85.7%,Max,223.7,P13,23.22,P4,339.6,P25,-0.1873,P60,421.3,P25,11.29,P4,340.0,P25,421.4,P25
9246,C94,,85.7%,Min,-168.5,P57,-31.12,P60,126.7,P69,-17.74,P7,60.49,P69,-16.48,P60,126.7,P69,60.50,P69
9246,C94,,89.3%,Max,223.7,P13,23.22,P4,344.2,P25,-0.1873,P60,546.1,P25,15.19,P4,344.6,P25,546.2,P25
9246,C94,,89.3%,Min,-168.5,P57,-31.12,P60,130.1,P69,-17.74,P7,107.4,P69,-17.67,P5,130.2,P69,107.4,P69
9246,C94,,92.9%,Max,223.7,P13,23.22,P4,348.8,P25,-0.1873,P60,672.7,P25,19.09,P4,349.3,P25,672.7,P25
9246,C94,,92.9%,Min,-168.5,P57,-31.12,P60,133.6,P69,-17.74,P7,155.6,P69,-19.36,P5,133.6,P69,155.6,P69
9246,C94,,96.4%,Max,223.7,P13,23.22,P4,353.5,P25,-0.1873,P60,801.0,P25,22.99,P4,353.9,P25,801.0,P25
9246,C94,,96.4%,Min,-168.5,P57,-31.12,P60,137.0,P69,-17.74,P7,205.0,P69,-21.04,P5,137.0,P69,205.0,P69
9246,C94,5223,100.0%,Max,223.7,P13,23.22,P4,358.1,P25,-0.1873,P60,930.9,P25,28.99,P60,358.5,P25,931.0,P25
9246,C94,5223,100.0%,Min,-168.5,P57,-31.12,P60,140.5,P69,-17.74,P7,255.6,P69,-22.73,P5,140.5,P69,255.7,P69
9247,C94,5225,0.0%,Max,110.1,P2,28.57,P2,-96.71,P84,-4.283,P84,114.6,P8,26.98,P2,221.5,P33,115.1,P8
9247,C94,5225,0.0%,Min,-39.42,P3,-17.86,P3,-221.5,P33,-14.60,P6,40.29,P57,-17.57,P3,97.92,P85,40.67,P56
9247,C94,,5.0%,Max,110.1,P2,28.57,P2,-93.23,P84,-4.283,P84,34.37,P8,22.47,P2,216.8,P33,36.76,P2
9247,C94,,5.0%,Min,-39.42,P3,-17.86,P3,-216.8,P33,-14.60,P6,-2.310,P3,-17.02,P3,94.48,P85,4.133,P55
9247,C94,,10.0%,Max,110.1,P2,28.57,P2,-89.75,P84,-4.283,P84,-8.048,P2,17.96,P2,212.1,P33,50.29,P3
9247,C94,,10.0%,Min,-39.42,P3,-17.86,P3,-212.1,P33,-14.60,P6,-49.53,P33,-16.47,P3,91.04,P85,17.92,P4
9247,C94,,15.0%,Max,110.1,P2,28.57,P2,-86.26,P84,-4.283,P84,-43.90,P2,13.44,P2,207.4,P33,127.1,P33
9247,C94,,15.0%,Min,-39.42,P3,-17.86,P3,-207.4,P33,-14.60,P6,-127.1,P33,-15.92,P3,87.61,P85,45.91,P2
9247,C94,,20.0%,Max,110.1,P2,28.57,P2,-82.78,P84,-4.283,P84,-78.46,P2,8.931,P2,202.7,P33,203.0,P33
9247,C94,,20.0%,Min,-39.42,P3,-17.86,P3,-202.7,P33,-14.60,P6,-203.0,P33,-15.38,P3,84.18,P85,78.97,P2
9247,C94,,20.0%,Max,120.1,P2,12.93,P2,-59.43,P89,-1.472,P82,-87.39,P2,11.05,P2,131.4,P22,222.1,P33
9247,C94,,20.0%,Min,-40.36,P3,-7.764,P3,-131.3,P33,-7.701,P6,-222.1,P33,-7.368,P3,59.88,P89,88.09,P2
9247,C94,,25.0%,Max,120.1,P2,12.93,P2,-55.94,P89,-1.472,P82,-110.6,P2,9.347,P2,126.7,P22,269.8,P33
9247,C94,,25.0%,Min,-40.36,P3,-7.764,P3,-126.6,P33,-7.701,P6,-269.8,P33,-7.580,P3,56.43,P89,111.0,P2
9247,C94,,30.0%,Max,120.1,P2,12.93,P2,-52.46,P89,-1.472,P82,-132.5,P2,7.647,P2,122.0,P22,315.8,P33
9247,C94,,30.0%,Min,-40.36,P3,-7.764,P3,-121.9,P33,-7.701,P6,-315.8,P33,-7.792,P3,52.97,P89,132.7,P2
9247,C94,,35.0%,Max,120.1,P2,12.93,P2,-48.98,P89,-1.472,P82,-152.3,P85,5.947,P2,117.3,P22,360.0,P33
9247,C94,,35.0%,Min,-40.36,P3,-7.764,P3,-117.2,P33,-7.701,P6,-360.0,P33,-8.004,P3,49.53,P89,152.3,P85
9247,C94,,40.0%,Max,120.1,P2,12.93,P2,-45.49,P89,-1.472,P82,-169.8,P85,4.247,P2,112.6,P22,402.5,P33
9247,C94,,40.0%,Min,-40.36,P3,-7.764,P3,-112.5,P33,-7.701,P6,-402.5,P33,-8.215,P3,46.07,P53,169.9,P85
9247,C94,,40.0%,Max,119.9,P2,8.287,P2,-8.671,P2,-0.2603,P58,-172.4,P85,6.781,P2,15.95,P24,409.8,P33
9247,C94,,40.0%,Min,-39.00,P81,-5.147,P3,-15.56,P6,-3.212,P7,-409.8,P33,-5.101,P3,9.769,P68,172.5,P85
9247,C94,,45.0%,Max,119.9,P2,8.287,P2,-5.188,P2,-0.2603,P58,-175.5,P85,5.771,P2,11.46,P12,414.5,P33
9247,C94,,45.0%,Min,-39.00,P81,-5.147,P3,-10.86,P6,-3.212,P7,-414.5,P33,-5.253,P3,6.311,P69,175.5,P85
9247,C94,,50.0%,Max,119.9,P2,8.287,P2,-1.705,P2,-0.2603,P58,-177.3,P85,4.761,P2,8.461,P2,417.5,P33
9247,C94,,50.0%,Min,-39.00,P81,-5.147,P3,-6.158,P6,-3.212,P7,-417.5,P33,-5.405,P3,2.888,P69,177.3,P85
9247,C94,,55.0%,Max,119.9,P2,8.287,P2,1.779,P2,-0.2603,P58,-177.8,P85,3.751,P2,8.476,P2,418.8,P33
9247,C94,,55.0%,Min,-39.00,P81,-5.147,P3,-1.979,P3,-3.212,P7,-418.8,P33,-5.557,P3,0.3283,P77,177.8,P85
9247,C94,,60.0%,Max,119.9,P2,8.287,P2,5.262,P2,-0.2603,P58,-177.1,P85,2.741,P2,9.817,P2,418.3,P33
9247,C94,,60.0%,Min,-39.00,P81,-5.147,P3,1.504,P3,-3.212,P7,-418.3,P33,-5.709,P3,3.149,P73,177.1,P85
9247,C94,,60.0%,Max,123.0,P9,6.559,P2,90.91,P31,-1.711,P58,-175.7,P85,4.536,P2,90.91,P31,416.2,P33
9247,C94,,60.0%,Min,-46.29,P81,-4.258,P3,35.20,P3,-6.579,P6,-416.2,P33,-4.084,P3,35.46,P3,175.8,P85
9247,C94,,65.0%,Max,123.0,P9,6.559,P2,95.61,P31,-1.711,P58,-161.6,P85,4.041,P2,95.62,P31,381.7,P33
9247,C94,,65.0%,Min,-46.29,P81,-4.258,P3,38.68,P3,-6.579,P6,-381.7,P33,-4.440,P3,38.92,P3,161.6,P85
9247,C94,,70.0%,Max,123.0,P9,6.559,P2,100.3,P31,-1.711,P58,-146.2,P85,3.546,P2,100.3,P31,345.5,P33
9247,C94,,70.0%,Min,-46.29,P81,-4.258,P3,42.17,P3,-6.579,P6,-345.5,P33,-4.796,P3,42.38,P3,146.2,P85
9247,C94,,75.0%,Max,123.0,P9,6.559,P2,105.0,P31,-1.711,P58,-129.4,P84,3.051,P2,105.0,P31,307.5,P33
9247,C94,,75.0%,Min,-46.29,P81,-4.258,P3,45.65,P3,-6.579,P6,-307.5,P33,-5.152,P3,45.85,P3,129.4,P85
9247,C94,,80.0%,Max,123.0,P9,6.559,P2,109.7,P31,-1.711,P58,-111.4,P84,2.556,P2,109.7,P31,267.8,P33
9247,C94,,80.0%,Min,-46.29,P81,-4.258,P3,49.13,P3,-6.579,P6,-267.8,P33,-5.509,P3,49.32,P3,111.5,P84
9247,C94,,80.0%,Max,106.6,P9,14.92,P84,169.1,P31,6.997,P22,-105.8,P84,8.832,P84,169.1,P31,255.7,P33
9247,C94,,80.0%,Min,-49.07,P81,-8.448,P81,70.02,P49,1.750,P3,-255.7,P33,-5.963,P81,70.02,P49,106.2,P84
9247,C94,,85.0%,Max,106.6,P9,14.92,P84,173.8,P31,6.997,P22,-78.89,P84,6.727,P2,173.8,P31,192.3,P6
9247,C94,,85.0%,Min,-49.07,P81,-8.448,P81,73.50,P49,1.750,P3,-192.3,P6,-6.391,P3,73.50,P49,78.96,P84
9247,C94,,90.0%,Max,106.6,P9,14.92,P84,178.5,P31,6.997,P22,-50.68,P84,6.228,P2,178.5,P31,127.6,P6
9247,C94,,90.0%,Min,-49.07,P81,-8.448,P81,76.99,P49,1.750,P3,-127.6,P6,-8.562,P3,76.99,P49,50.73,P84
9247,C94,,95.0%,Max,106.6,P9,14.92,P84,183.2,P31,6.997,P22,-20.21,P2,5.730,P2,183.2,P31,61.11,P6
9247,C94,,95.0%,Min,-49.07,P81,-8.448,P81,80.47,P49,1.750,P3,-61.10,P6,-10.73,P3,80.47,P49,21.00,P2
9247,C94,6069,100.0%,Max,106.6,P9,14.92,P84,187.9,P31,6.997,P22,16.32,P9,6.540,P81,187.9,P31,21.18,P9
9247,C94,6069,100.0%,Min,-49.07,P81,-8.448,P81,83.95,P49,1.750,P3,-8.953,P81,-13.49,P9,83.95,P49,1.636,P53
9248,C94,5244,0.0%,Max,361.1,P2,38.55,P60,-147.0,P55,15.39,P7,899.2,P8,35.04,P60,351.8,P8,899.4,P8
9248,C94,5244,0.0%,Min,-132.5,P3,-22.78,P57,-351.1,P8,-0.5709,P84,306.4,P55,-21.61,P57,147.8,P55,306.7,P55
9248,C94,,3.6%,Max,361.1,P2,38.55,P60,-143.7,P55,15.39,P7,775.2,P8,24.73,P4,347.3,P8,775.3,P8
9248,C94,,3.6%,Min,-132.5,P3,-22.78,P57,-346.6,P8,-0.5709,P84,254.8,P55,-18.39,P5,144.4,P55,254.9,P55
9248,C94,,7.1%,Max,361.1,P2,38.55,P60,-140.3,P55,15.39,P7,652.8,P8,19.56,P4,342.8,P8,652.8,P8
9248,C94,,7.1%,Min,-132.5,P3,-22.78,P57,-342.1,P8,-0.5709,P84,204.3,P55,-18.24,P5,141.1,P55,204.3,P55
9248,C94,,10.7%,Max,361.1,P2,38.55,P60,-137.0,P55,15.39,P7,532.0,P8,14.39,P4,338.3,P8,532.1,P8
9248,C94,,10.7%,Min,-132.5,P3,-22.78,P57,-337.6,P8,-0.5709,P84,155.0,P55,-18.09,P5,137.8,P55,155.0,P55
9248,C94,,14.3%,Max,361.1,P2,38.55,P60,-133.6,P55,15.39,P7,412.9,P8,10.78,P57,333.8,P8,413.1,P8
9248,C94,,14.3%,Min,-132.5,P3,-22.78,P57,-333.1,P8,-0.5709,P84,106.9,P55,-19.76,P60,134.5,P55,107.2,P55
9248,C94,,14.3%,Max,300.0,P2,12.06,P2,-113.5,P55,25.19,P6,389.8,P8,7.810,P2,284.7,P8,389.9,P8
9248,C94,,14.3%,Min,-114.8,P3,-6.711,P3,-284.6,P8,6.002,P60,98.03,P55,-4.969,P3,113.5,P55,98.04,P55
9248,C94,,17.9%,Max,300.0,P2,12.06,P2,-110.1,P55,25.19,P6,289.5,P8,7.040,P2,280.1,P8,289.5,P8
9248,C94,,17.9%,Min,-114.8,P3,-6.711,P3,-280.1,P8,6.002,P60,58.29,P55,-6.098,P3,110.2,P55,58.29,P55
9248,C94,,21.4%,Max,300.0,P2,12.06,P2,-106.8,P55,25.19,P6,190.8,P8,6.270,P2,275.6,P8,190.8,P8
9248,C94,,21.4%,Min,-114.8,P3,-6.711,P3,-275.6,P8,6.002,P60,19.74,P55,-7.227,P3,106.8,P55,19.74,P55
9248,C94,,25.0%,Max,300.0,P2,12.06,P2,-103.5,P55,25.19,P6,117.8,P2,5.500,P2,271.1,P8,117.9,P2
9248,C94,,25.0%,Min,-114.8,P3,-6.711,P3,-271.0,P8,6.002,P60,-17.62,P55,-8.356,P3,103.5,P55,0.6697,P42
9248,C94,,28.6%,Max,300.0,P2,12.06,P2,-100.1,P55,25.19,P6,62.27,P2,4.730,P2,266.6,P8,62.45,P2
9248,C94,,28.6%,Min,-114.8,P3,-6.711,P3,-266.5,P8,6.002,P60,-58.50,P3,-9.486,P3,100.1,P55,3.128,P91
9248,C94,,28.6%,Max,262.7,P2,8.806,P2,-75.09,P55,11.21,P6,57.29,P2,7.264,P2,187.2,P8,62.87,P19
9248,C94,,28.6%,Min,-103.6,P3,-4.859,P3,-187.2,P8,1.546,P60,-62.87,P19,-4.614,P3,75.09,P55,1.207,P92
9248,C94,,32.1%,Max,262.7,P2,8.806,P2,-71.74,P55,11.21,P6,19.29,P2,6.091,P2,182.7,P8,118.8,P19
9248,C94,,32.1%,Min,-103.6,P3,-4.859,P3,-182.7,P8,1.546,P60,-118.8,P19,-4.844,P3,71.75,P55,1.591,P89
9248,C94,,35.7%,Max,262.7,P2,8.806,P2,-68.39,P55,11.21,P6,-17.51,P2,4.918,P2,178.2,P8,174.4,P31
9248,C94,,35.7%,Min,-103.6,P3,-4.859,P3,-178.2,P8,1.546,P60,-174.4,P31,-5.074,P3,68.40,P55,18.18,P2
9248,C94,,39.3%,Max,262.7,P2,8.806,P2,-65.05,P55,11.21,P6,-53.12,P2,3.745,P2,173.7,P8,233.9,P31
9248,C94,,39.3%,Min,-103.6,P3,-4.859,P3,-173.7,P8,1.546,P60,-233.9,P31,-5.304,P3,65.05,P55,53.25,P2
9248,C94,,42.9%,Max,262.7,P2,8.806,P2,-61.70,P55,11.21,P6,-87.54,P2,2.572,P2,169.2,P8,291.9,P31
9248,C94,,42.9%,Min,-103.6,P3,-4.859,P3,-169.1,P8,1.546,P60,-291.9,P31,-5.534,P3,61.71,P55,87.58,P2
9248,C94,,42.9%,Max,237.6,P2,5.943,P2,-31.18,P55,1.818,P81,-92.75,P2,4.306,P2,84.79,P8,300.2,P31
9248,C94,,42.9%,Min,-99.27,P3,-3.216,P3,-84.76,P8,-1.468,P60,-300.2,P31,-2.949,P3,31.19,P55,92.85,P2
9248,C94,,46.4%,Max,237.6,P2,5.943,P2,-27.84,P55,1.818,P81,-110.3,P2,3.701,P2,80.28,P8,326.9,P31
9248,C94,,46.4%,Min,-99.27,P3,-3.216,P3,-80.24,P8,-1.468,P60,-326.9,P31,-3.313,P3,27.84,P55,110.3,P2
9248,C94,,50.0%,Max,237.6,P2,5.943,P2,-24.49,P55,1.818,P81,-126.3,P85,3.095,P2,75.76,P8,352.1,P31
9248,C94,,50.0%,Min,-99.27,P3,-3.216,P3,-75.72,P8,-1.468,P60,-352.1,P31,-3.677,P3,24.50,P55,126.3,P85
9248,C94,,53.6%,Max,237.6,P2,5.943,P2,-21.14,P55,1.818,P81,-140.2,P85,2.490,P2,71.25,P8,375.6,P31
9248,C94,,53.6%,Min,-99.27,P3,-3.216,P3,-71.21,P8,-1.468,P60,-375.6,P31,-4.040,P3,21.15,P55,140.2,P85
9248,C94,,57.1%,Max,237.6,P2,5.943,P2,-17.80,P55,1.818,P81,-152.9,P85,1.884,P2,66.73,P8,397.5,P31
9248,C94,,57.1%,Min,-99.27,P3,-3.216,P3,-66.69,P8,-1.468,P60,-397.5,P31,-4.404,P3,17.81,P55,152.9,P85
9248,C94,,57.1%,Max,226.8,P2,5.750,P2,2.434,P2,-2.706,P81,-154.8,P85,3.221,P2,15.25,P3,400.5,P31
9248,C94,,57.1%,Min,-104.2,P3,-3.200,P3,-14.91,P3,-9.662,P22,-400.5,P31,-2.270,P3,0.2875,P78,154.8,P85
9248,C94,,60.7%,Max,226.8,P2,5.750,P2,5.780,P2,-2.706,P81,-158.2,P85,3.029,P2,12.00,P3,400.3,P31
9248,C94,,60.7%,Min,-104.2,P3,-3.200,P3,-11.56,P3,-9.662,P22,-400.3,P31,-2.985,P3,0.3191,P68,158.2,P85
9248,C94,,64.3%,Max,226.8,P2,5.750,P2,9.126,P2,-2.706,P81,-160.5,P85,2.838,P2,10.79,P2,398.4,P31
9248,C94,,64.3%,Min,-104.2,P3,-3.200,P3,-8.218,P3,-9.662,P22,-398.4,P31,-3.699,P3,0.6576,P93,160.5,P85
9248,C94,,67.9%,Max,226.8,P2,5.750,P2,13.57,P19,-2.706,P81,-161.6,P85,2.646,P2,13.73,P2,395.0,P31
9248,C94,,67.9%,Min,-104.2,P3,-3.200,P3,-4.873,P3,-9.662,P22,-395.0,P31,-4.414,P3,2.760,P41,161.6,P85
9248,C94,,71.4%,Max,226.8,P2,5.750,P2,18.08,P19,-2.706,P81,-161.4,P85,2.455,P2,18.09,P19,389.9,P31
9248,C94,,71.4%,Min,-104.2,P3,-3.200,P3,-1.527,P3,-9.662,P22,-389.9,P31,-5.128,P3,2.706,P5,161.4,P85
9248,C94,,71.4%,Max,224.1,P2,4.975,P9,94.45,P31,-5.386,P2,-160.4,P85,4.387,P9,94.47,P31,386.8,P31
9248,C94,,71.4%,Min,-116.6,P3,-2.106,P81,31.96,P85,-15.67,P22,-386.8,P31,-2.922,P81,32.31,P85,160.5,P85
9248,C94,,75.0%,Max,224.1,P2,4.975,P9,98.97,P31,-5.386,P2,-148.5,P85,2.778,P93,98.98,P31,352.4,P31
9248,C94,,75.0%,Min,-116.6,P3,-2.106,P81,35.30,P85,-15.67,P22,-352.4,P31,-2.615,P72,35.62,P85,148.5,P85
9248,C94,,78.6%,Max,224.1,P2,4.975,P9,103.5,P31,-5.386,P2,-135.3,P61,2.164,P4,103.5,P31,316.4,P31
9248,C94,,78.6%,Min,-116.6,P3,-2.106,P81,38.65,P85,-15.67,P22,-316.4,P31,-3.130,P5,38.94,P85,135.3,P61
9248,C94,,82.1%,Max,224.1,P2,4.975,P9,108.0,P31,-5.386,P2,-120.8,P61,2.322,P2,108.0,P31,278.8,P31
9248,C94,,82.1%,Min,-116.6,P3,-2.106,P81,41.99,P85,-15.67,P22,-278.8,P31,-4.445,P3,42.26,P85,120.8,P61
9248,C94,,85.7%,Max,224.1,P2,4.975,P9,112.5,P31,-5.386,P2,-104.4,P4,2.580,P2,112.5,P31,239.7,P31
9248,C94,,85.7%,Min,-116.6,P3,-2.106,P81,45.34,P85,-15.67,P22,-239.7,P31,-5.860,P3,45.59,P85,104.4,P4
9248,C94,,85.7%,Max,194.5,P2,25.70,P9,159.9,P31,-5.860,P2,-100.5,P49,15.73,P4,160.1,P31,229.7,P31
9248,C94,,85.7%,Min,-111.5,P3,-12.29,P71,64.52,P85,-16.49,P22,-229.7,P31,-9.804,P5,65.51,P37,100.7,P53
9248,C94,,89.3%,Max,194.5,P2,25.70,P9,164.4,P31,-5.860,P2,-75.38,P4,13.35,P4,164.6,P31,172.1,P31
9248,C94,,89.3%,Min,-111.5,P3,-12.29,P71,67.86,P85,-16.49,P22,-172.1,P31,-11.94,P5,68.85,P37,76.27,P77
9248,C94,,92.9%,Max,194.5,P2,25.70,P9,168.9,P31,-5.860,P2,-49.01,P4,10.97,P4,169.2,P31,113.6,P8
9248,C94,,92.9%,Min,-111.5,P3,-12.29,P71,71.21,P85,-16.49,P22,-113.6,P8,-14.07,P5,72.19,P37,49.99,P2
9248,C94,,96.4%,Max,194.5,P2,25.70,P9,173.4,P31,-5.860,P2,-20.94,P2,8.597,P4,173.7,P31,54.80,P8
9248,C94,,96.4%,Min,-111.5,P3,-12.29,P71,74.56,P85,-16.49,P22,-53.97,P8,-16.21,P5,75.54,P37,22.39,P2
9248,C94,6070,100.0%,Max,194.5,P2,25.70,P9,177.9,P31,-5.860,P2,10.40,P31,8.002,P71,178.2,P31,21.63,P9
9248,C94,6070,100.0%,Min,-111.5,P3,-12.29,P71,77.90,P85,-16.49,P22,-1.122,P3,-21.00,P9,78.88,P37,3.705,P48
9249,C94,7597,0.0%,Max,45.20,P85,12.86,P2,-111.4,P60,-1.250,P4,36.39,P8,13.56,P2,250.8,P30,36.70,P8
9249,C94,7597,0.0%,Min,-52.62,P81,-8.496,P3,-250.8,P30,-4.581,P33,7.477,P3,-9.175,P3,111.7,P60,8.344,P57
9249,C94,,4.2%,Max,45.20,P85,12.86,P2,-108.1,P60,-1.250,P4,-13.77,P2,10.87,P2,246.4,P30,55.53,P33
9249,C94,,4.2%,Min,-52.62,P81,-8.496,P3,-246.4,P30,-4.581,P33,-55.50,P33,-7.998,P3,108.4,P60,17.19,P84
9249,C94,,8.3%,Max,45.20,P85,12.86,P2,-104.8,P60,-1.250,P4,-53.69,P84,8.177,P2,242.0,P30,140.3,P33
9249,C94,,8.3%,Min,-52.62,P81,-8.496,P3,-242.0,P30,-4.581,P33,-140.3,P33,-6.821,P3,105.1,P36,53.71,P84
9249,C94,,12.5%,Max,45.20,P85,12.86,P2,-101.5,P60,-1.250,P4,-89.59,P84,5.485,P2,237.6,P30,223.5,P33
9249,C94,,12.5%,Min,-52.62,P81,-8.496,P3,-237.6,P30,-4.581,P33,-223.5,P33,-5.644,P3,101.9,P36,89.59,P84
9249,C94,,16.7%,Max,45.20,P85,12.86,P2,-98.27,P60,-1.250,P4,-124.3,P84,2.792,P2,233.2,P30,305.3,P33
9249,C94,,16.7%,Min,-52.62,P81,-8.496,P3,-233.2,P30,-4.581,P33,-305.3,P33,-4.467,P3,98.62,P36,124.4,P84
9249,C94,,16.7%,Max,70.44,P85,8.260,P2,-65.60,P48,-2.206,P58,-129.5,P84,7.496,P2,144.4,P30,318.5,P33
9249,C94,,16.7%,Min,-65.98,P81,-5.335,P3,-144.4,P30,-6.299,P6,-318.5,P33,-5.210,P3,65.68,P48,129.5,P84
9249,C94,,20.8%,Max,70.44,P85,8.260,P2,-62.33,P48,-2.206,P58,-151.8,P84,6.206,P2,140.0,P30,367.8,P33
9249,C94,,20.8%,Min,-65.98,P81,-5.335,P3,-140.0,P30,-6.299,P6,-367.8,P33,-4.935,P3,62.41,P48,151.9,P84
9249,C94,,25.0%,Max,70.44,P85,8.260,P2,-59.06,P48,-2.206,P58,-173.1,P84,4.915,P2,135.6,P30,415.6,P33
9249,C94,,25.0%,Min,-65.98,P81,-5.335,P3,-135.6,P30,-6.299,P6,-415.6,P33,-4.661,P3,59.14,P52,173.1,P84
9249,C94,,29.2%,Max,70.44,P85,8.260,P2,-55.79,P48,-2.206,P58,-193.2,P84,3.624,P2,131.2,P30,461.8,P33
9249,C94,,29.2%,Min,-65.98,P81,-5.335,P3,-131.2,P30,-6.299,P6,-461.8,P33,-4.386,P3,55.88,P52,193.2,P84
9249,C94,,33.3%,Max,70.44,P85,8.260,P2,-52.52,P48,-2.206,P58,-212.1,P84,2.333,P2,126.8,P30,506.5,P33
9249,C94,,33.3%,Min,-65.98,P81,-5.335,P3,-126.7,P30,-6.299,P6,-506.5,P33,-4.112,P3,52.61,P52,212.2,P84
9249,C94,,33.3%,Max,105.7,P2,7.738,P2,-18.64,P2,-3.050,P57,-214.4,P84,6.387,P2,38.24,P8,512.9,P33
9249,C94,,33.3%,Min,-87.19,P3,-5.231,P3,-38.14,P8,-8.322,P8,-512.9,P33,-4.639,P3,19.47,P57,214.4,P84
9249,C94,,37.5%,Max,105.7,P2,7.738,P2,-15.37,P2,-3.050,P57,-221.0,P84,5.462,P2,33.84,P8,525.2,P33
9249,C94,,37.5%,Min,-87.19,P3,-5.231,P3,-33.73,P8,-8.322,P8,-525.2,P33,-4.585,P3,16.20,P57,221.0,P84
9249,C94,,41.7%,Max,105.7,P2,7.738,P2,-12.10,P2,-3.050,P57,-226.3,P60,4.537,P2,29.44,P8,536.0,P33
9249,C94,,41.7%,Min,-87.19,P3,-5.231,P3,-29.31,P8,-8.322,P8,-536.0,P33,-4.531,P3,12.93,P57,226.3,P60
9249,C94,,45.8%,Max,105.7,P2,7.738,P2,-8.827,P2,-3.050,P57,-230.5,P60,3.613,P2,25.05,P8,545.2,P33
9249,C94,,45.8%,Min,-87.19,P3,-5.231,P3,-24.90,P8,-8.322,P8,-545.2,P33,-4.477,P3,9.659,P57,230.5,P60
9249,C94,,50.0%,Max,105.7,P2,7.738,P2,-5.557,P2,-3.050,P57,-233.5,P60,2.688,P2,20.67,P8,552.9,P33
9249,C94,,50.0%,Min,-87.19,P3,-5.231,P3,-20.49,P8,-8.322,P8,-552.9,P33,-4.423,P3,6.390,P57,233.5,P60
9249,C94,,50.0%,Max,143.7,P2,7.058,P2,62.33,P33,-5.279,P57,-233.6,P60,4.739,P2,62.33,P33,554.3,P33
9249,C94,,50.0%,Min,-106.8,P3,-5.306,P3,22.06,P84,-14.93,P8,-554.3,P33,-4.154,P3,22.41,P88,233.6,P60
9249,C94,,54.2%,Max,143.7,P2,7.058,P2,66.74,P33,-5.279,P57,-225.3,P60,4.376,P2,66.75,P33,531.9,P33
9249,C94,,54.2%,Min,-106.8,P3,-5.306,P3,25.33,P84,-14.93,P8,-531.9,P33,-4.400,P3,25.64,P84,225.3,P60
9249,C94,,58.3%,Max,143.7,P2,7.058,P2,71.15,P33,-5.279,P57,-215.9,P60,4.013,P2,71.16,P33,508.0,P33
9249,C94,,58.3%,Min,-106.8,P3,-5.306,P3,28.60,P84,-14.93,P8,-508.0,P33,-4.645,P3,28.87,P84,215.9,P60
9249,C94,,62.5%,Max,143.7,P2,7.058,P2,75.57,P33,-5.279,P57,-205.3,P60,3.649,P2,75.57,P33,482.5,P33
9249,C94,,62.5%,Min,-106.8,P3,-5.306,P3,31.87,P84,-14.93,P8,-482.5,P33,-4.890,P3,32.12,P84,205.3,P60
9249,C94,,66.7%,Max,143.7,P2,7.058,P2,79.98,P33,-5.279,P57,-193.6,P60,3.286,P2,79.99,P33,455.5,P33
9249,C94,,66.7%,Min,-106.8,P3,-5.306,P3,35.14,P84,-14.93,P8,-455.5,P33,-5.135,P3,35.36,P84,193.7,P60
9249,C94,,66.7%,Max,162.8,P2,10.17,P2,157.9,P33,-4.474,P57,-189.9,P60,5.767,P2,157.9,P33,447.4,P33
9249,C94,,66.7%,Min,-115.5,P3,-7.889,P3,64.60,P88,-13.34,P24,-447.4,P33,-5.419,P3,64.89,P88,189.9,P60
9249,C94,,70.8%,Max,162.8,P2,10.17,P2,162.3,P33,-4.474,P57,-166.9,P60,5.731,P2,162.3,P33,391.8,P33
9249,C94,,70.8%,Min,-115.5,P3,-7.889,P3,67.87,P88,-13.34,P24,-391.8,P33,-6.177,P3,68.15,P88,166.9,P60
9249,C94,,75.0%,Max,162.8,P2,10.17,P2,166.7,P33,-4.474,P57,-142.7,P60,5.695,P2,166.7,P33,334.7,P33
9249,C94,,75.0%,Min,-115.5,P3,-7.889,P3,71.14,P88,-13.34,P24,-334.7,P33,-6.934,P3,71.41,P88,142.7,P60
9249,C94,,79.2%,Max,162.8,P2,10.17,P2,171.1,P33,-4.474,P57,-117.3,P60,5.660,P2,171.1,P33,276.1,P33
9249,C94,,79.2%,Min,-115.5,P3,-7.889,P3,74.41,P88,-13.34,P24,-276.1,P33,-7.692,P3,74.67,P88,117.4,P60
9249,C94,,83.3%,Max,162.8,P2,10.17,P2,175.5,P33,-4.474,P57,-90.87,P60,5.624,P2,175.5,P33,215.9,P33
9249,C94,,83.3%,Min,-115.5,P3,-7.889,P3,77.68,P88,-13.34,P24,-215.9,P33,-8.450,P3,77.92,P88,91.08,P60
9249,C94,,83.3%,Max,169.0,P2,22.22,P2,189.4,P33,19.49,P22,-78.25,P60,11.66,P2,189.4,P33,187.9,P33
9249,C94,,83.3%,Min,-116.9,P3,-17.94,P3,75.48,P60,6.729,P3,-187.9,P33,-10.42,P3,76.69,P60,78.52,P60
9249,C94,,87.5%,Max,169.0,P2,22.22,P2,193.8,P33,19.49,P22,-51.46,P60,12.38,P2,193.8,P33,121.5,P6
9249,C94,,87.5%,Min,-116.9,P3,-17.94,P3,78.75,P60,6.729,P3,-121.5,P6,-12.62,P3,79.91,P60,51.50,P60
9249,C94,,91.7%,Max,169.0,P2,22.22,P2,198.2,P33,19.49,P22,-21.03,P2,13.10,P2,198.2,P33,53.80,P6
9249,C94,,91.7%,Min,-116.9,P3,-17.94,P3,82.02,P60,6.729,P3,-53.80,P6,-14.83,P3,83.13,P60,23.72,P60
9249,C94,,95.8%,Max,169.0,P2,22.22,P2,202.6,P33,19.49,P22,18.00,P22,13.82,P2,202.6,P33,18.98,P2
9249,C94,,95.8%,Min,-116.9,P3,-17.94,P3,85.29,P60,6.729,P3,-2.719,P3,-17.03,P3,86.36,P60,2.516,P77
9249,C94,6071,100.0%,Max,169.0,P2,22.22,P2,207.0,P33,19.49,P22,88.47,P22,14.54,P2,207.0,P33,88.76,P22
9249,C94,6071,100.0%,Min,-116.9,P3,-17.94,P3,88.56,P60,6.729,P3,34.07,P77,-19.24,P3,89.59,P60,34.08,P77
9250,C94,7734,0.0%,Max,190.8,P4,10.05,P4,-81.68,P66,-2.315,P66,355.4,P24,8.619,P4,202.2,P24,355.4,P24
9250,C94,7734,0.0%,Min,-216.2,P5,-12.90,P5,-202.2,P24,-7.901,P25,113.6,P66,-11.70,P5,81.68,P66,113.6,P66
9250,C94,,4.2%,Max,190.8,P4,10.05,P4,-79.66,P66,-2.315,P66,283.4,P24,8.179,P4,199.5,P24,283.4,P24
9250,C94,,4.2%,Min,-216.2,P5,-12.90,P5,-199.5,P24,-7.901,P25,84.71,P66,-10.24,P5,79.66,P66,84.71,P66
9250,C94,,8.3%,Max,190.8,P4,10.05,P4,-77.63,P66,-2.315,P66,212.4,P24,7.740,P4,196.8,P24,212.4,P24
9250,C94,,8.3%,Min,-216.2,P5,-12.90,P5,-196.7,P24,-7.901,P25,56.52,P66,-8.773,P5,77.63,P66,56.52,P66
9250,C94,,12.5%,Max,190.8,P4,10.05,P4,-75.61,P66,-2.315,P66,142.3,P24,7.301,P4,194.0,P24,142.3,P24
9250,C94,,12.5%,Min,-216.2,P5,-12.90,P5,-194.0,P24,-7.901,P25,29.04,P66,-7.311,P5,75.61,P66,29.04,P66
9250,C94,,16.7%,Max,190.8,P4,10.05,P4,-73.58,P66,-2.315,P66,76.64,P12,6.861,P4,191.3,P24,76.64,P12
9250,C94,,16.7%,Min,-216.2,P5,-12.90,P5,-191.3,P24,-7.901,P25,2.295,P66,-5.849,P5,73.58,P66,2.326,P66
9250,C94,,16.7%,Max,210.1,P4,4.857,P2,-68.31,P67,0.003570,P2,54.77,P12,4.111,P4,176.5,P25,54.85,P12
9250,C94,,16.7%,Min,-250.3,P5,-7.753,P3,-176.5,P25,-1.630,P25,-6.622,P66,-6.488,P5,68.31,P67,0.5224,P42
9250,C94,,20.8%,Max,210.1,P4,4.857,P2,-66.28,P67,0.003570,P2,16.45,P48,4.265,P4,173.8,P25,38.61,P18
9250,C94,,20.8%,Min,-250.3,P5,-7.753,P3,-173.8,P25,-1.630,P25,-38.60,P18,-5.603,P5,66.28,P67,1.215,P71
9250,C94,,25.0%,Max,210.1,P4,4.857,P2,-64.26,P67,0.003570,P2,-11.24,P48,4.440,P2,171.1,P25,95.01,P30
9250,C94,,25.0%,Min,-250.3,P5,-7.753,P3,-171.0,P25,-1.630,P25,-95.01,P30,-4.740,P3,64.26,P67,11.26,P48
9250,C94,,29.2%,Max,210.1,P4,4.857,P2,-62.23,P67,0.003570,P2,-38.20,P48,4.808,P2,168.3,P25,154.0,P30
9250,C94,,29.2%,Min,-250.3,P5,-7.753,P3,-168.3,P25,-1.630,P25,-154.0,P30,-4.069,P3,62.23,P67,38.20,P48
9250,C94,,33.3%,Max,210.1,P4,4.857,P2,-60.20,P67,0.003570,P2,-64.44,P48,5.176,P2,165.6,P25,212.0,P30
9250,C94,,33.3%,Min,-250.3,P5,-7.753,P3,-165.6,P25,-1.630,P25,-212.0,P30,-3.399,P3,60.21,P67,64.45,P48
9250,C94,,33.3%,Max,221.1,P4,4.342,P2,-19.00,P66,2.456,P30,-67.11,P48,3.322,P4,51.89,P24,215.0,P30
9250,C94,,33.3%,Min,-279.1,P5,-7.012,P3,-51.83,P24,0.8016,P88,-215.0,P30,-5.112,P5,19.00,P66,67.13,P48
9250,C94,,37.5%,Max,221.1,P4,4.342,P2,-16.98,P66,2.456,P30,-76.68,P48,3.661,P4,49.16,P24,231.7,P30
9250,C94,,37.5%,Min,-279.1,P5,-7.012,P3,-49.09,P24,0.8016,P88,-231.7,P30,-4.494,P5,16.98,P66,76.69,P48
9250,C94,,41.7%,Max,221.1,P4,4.342,P2,-14.95,P66,2.456,P30,-85.53,P48,4.175,P2,46.43,P24,247.3,P30
9250,C94,,41.7%,Min,-279.1,P5,-7.012,P3,-46.36,P24,0.8016,P88,-247.3,P30,-4.049,P3,14.95,P66,85.53,P48
9250,C94,,45.8%,Max,221.1,P4,4.342,P2,-12.93,P66,2.456,P30,-93.66,P48,4.698,P2,43.70,P24,262.0,P30
9250,C94,,45.8%,Min,-279.1,P5,-7.012,P3,-43.62,P24,0.8016,P88,-262.0,P30,-3.615,P3,12.93,P66,93.66,P48
9250,C94,,50.0%,Max,221.1,P4,4.342,P2,-10.90,P66,2.456,P30,-101.1,P48,5.222,P2,40.97,P24,275.7,P30
9250,C94,,50.0%,Min,-279.1,P5,-7.012,P3,-40.89,P24,0.8016,P88,-275.7,P30,-3.181,P3,10.90,P66,101.1,P48
9250,C94,,50.0%,Max,216.9,P4,4.488,P4,37.73,P31,1.268,P29,-102.8,P48,3.584,P4,37.78,P31,277.8,P30
9250,C94,,50.0%,Min,-297.0,P5,-6.878,P5,8.327,P48,0.2325,P3,-277.8,P30,-5.102,P5,8.637,P48,102.9,P48
9250,C94,,54.2%,Max,216.9,P4,4.488,P4,40.47,P31,1.268,P29,-99.49,P48,3.896,P4,40.51,P31,263.8,P30
9250,C94,,54.2%,Min,-297.0,P5,-6.878,P5,10.35,P48,0.2325,P3,-263.8,P30,-4.557,P5,10.60,P48,99.50,P48
9250,C94,,58.3%,Max,216.9,P4,4.488,P4,43.20,P31,1.268,P29,-95.42,P48,4.208,P4,43.24,P31,248.8,P30
9250,C94,,58.3%,Min,-297.0,P5,-6.878,P5,12.38,P48,0.2325,P3,-248.8,P30,-4.012,P5,12.59,P48,95.42,P48
9250,C94,,62.5%,Max,216.9,P4,4.488,P4,45.93,P31,1.268,P29,-90.62,P48,4.520,P4,45.97,P31,232.8,P32
9250,C94,,62.5%,Min,-297.0,P5,-6.878,P5,14.40,P48,0.2325,P3,-232.8,P32,-3.468,P5,14.58,P48,90.62,P48
9250,C94,,66.7%,Max,216.9,P4,4.488,P4,48.67,P31,1.268,P29,-85.09,P48,4.978,P2,48.71,P31,216.1,P33
9250,C94,,66.7%,Min,-297.0,P5,-6.878,P5,16.43,P48,0.2325,P3,-216.1,P33,-3.069,P3,16.59,P48,85.10,P48
9250,C94,,66.7%,Max,209.4,P4,4.560,P4,133.2,P31,1.525,P25,-81.94,P48,3.347,P4,133.2,P31,206.6,P33
9250,C94,,66.7%,Min,-304.9,P5,-6.851,P5,48.90,P48,0.1509,P5,-206.6,P33,-4.539,P5,48.98,P48,81.96,P48
9250,C94,,70.8%,Max,209.4,P4,4.560,P4,135.9,P31,1.525,P25,-64.04,P48,3.863,P4,135.9,P31,158.6,P33
9250,C94,,70.8%,Min,-304.9,P5,-6.851,P5,50.93,P48,0.1509,P5,-158.6,P33,-4.233,P5,51.00,P48,64.05,P48
9250,C94,,75.0%,Max,209.4,P4,4.560,P4,138.6,P31,1.525,P25,-45.03,P60,4.379,P4,138.7,P31,109.5,P33
9250,C94,,75.0%,Min,-304.9,P5,-6.851,P5,52.96,P48,0.1509,P5,-109.5,P33,-3.927,P5,53.02,P48,45.03,P60
9250,C94,,79.2%,Max,209.4,P4,4.560,P4,141.4,P31,1.525,P25,-23.86,P67,4.894,P4,141.4,P31,59.69,P6
9250,C94,,79.2%,Min,-304.9,P5,-6.851,P5,54.98,P48,0.1509,P5,-59.67,P6,-3.622,P5,55.05,P48,23.86,P67
9250,C94,,83.3%,Max,209.4,P4,4.560,P4,144.1,P31,1.525,P25,-1.172,P67,5.410,P4,144.1,P31,9.717,P25
9250,C94,,83.3%,Min,-304.9,P5,-6.851,P5,57.01,P48,0.1509,P5,-9.458,P25,-3.316,P5,57.07,P48,1.199,P66
9250,C94,,83.3%,Max,201.5,P4,5.656,P4,204.2,P31,3.310,P25,14.85,P30,3.662,P4,204.3,P31,14.89,P31
9250,C94,,83.3%,Min,-307.0,P5,-8.965,P5,78.21,P49,1.007,P3,2.792,P49,-5.152,P5,78.33,P49,3.689,P73
9250,C94,,87.5%,Max,201.5,P4,5.656,P4,207.0,P31,3.310,P25,88.56,P31,4.716,P4,207.0,P31,88.56,P31
9250,C94,,87.5%,Min,-307.0,P5,-8.965,P5,80.23,P49,1.007,P3,31.20,P49,-5.019,P5,80.36,P49,31.22,P49
9250,C94,,91.7%,Max,201.5,P4,5.656,P4,209.7,P31,3.310,P25,163.3,P31,5.770,P4,209.7,P31,163.3,P31
9250,C94,,91.7%,Min,-307.0,P5,-8.965,P5,82.26,P49,1.007,P3,60.33,P49,-4.886,P5,82.38,P49,60.33,P49
9250,C94,,95.8%,Max,201.5,P4,5.656,P4,212.4,P31,3.310,P25,238.9,P31,6.824,P4,212.5,P31,238.9,P31
9250,C94,,95.8%,Min,-307.0,P5,-8.965,P5,84.29,P49,1.007,P3,90.19,P49,-4.754,P5,84.40,P49,90.21,P49
9250,C94,7730,100.0%,Max,201.5,P4,5.656,P4,215.2,P31,3.310,P25,315.6,P31,7.877,P4,215.2,P31,315.6,P31
9250,C94,7730,100.0%,Min,-307.0,P5,-8.965,P5,86.31,P49,1.007,P3,120.8,P49,-4.621,P5,86.42,P49,120.8,P49
9251,C94,6515,0.0%,Max,158.5,P4,5.842,P2,-133.7,P73,-4.079,P4,544.3,P32,4.521,P2,329.2,P32,544.3,P32
9251,C94,6515,0.0%,Min,-139.4,P5,-3.443,P3,-329.1,P32,-12.44,P24,209.3,P52,-2.631,P3,133.7,P73,209.3,P52
9251,C94,,3.6%,Max,158.5,P4,5.842,P2,-131.7,P73,-4.079,P4,425.6,P32,3.987,P2,326.4,P32,425.6,P32
9251,C94,,3.6%,Min,-139.4,P5,-3.443,P3,-326.4,P32,-12.44,P24,161.1,P52,-2.966,P3,131.7,P73,161.1,P52
9251,C94,,7.1%,Max,158.5,P4,5.842,P2,-129.6,P73,-4.079,P4,307.9,P32,3.453,P2,323.6,P32,307.9,P32
9251,C94,,7.1%,Min,-139.4,P5,-3.443,P3,-323.6,P32,-12.44,P24,113.7,P52,-3.301,P3,129.6,P73,113.7,P52
9251,C94,,10.7%,Max,158.5,P4,5.842,P2,-127.6,P73,-4.079,P4,191.2,P32,2.920,P2,320.9,P32,191.2,P32
9251,C94,,10.7%,Min,-139.4,P5,-3.443,P3,-320.9,P32,-12.44,P24,61.66,P3,-3.637,P3,127.6,P73,61.77,P3
9251,C94,,14.3%,Max,158.5,P4,5.842,P2,-125.5,P73,-4.079,P4,75.45,P32,2.386,P2,318.1,P32,75.46,P32
9251,C94,,14.3%,Min,-139.4,P5,-3.443,P3,-318.1,P32,-12.44,P24,6.377,P3,-3.972,P3,125.5,P73,7.512,P3
9251,C94,,14.3%,Max,149.8,P4,3.362,P2,-99.92,P49,-3.272,P4,44.39,P2,2.258,P2,249.8,P33,44.45,P2
9251,C94,,14.3%,Min,-126.3,P5,-1.432,P3,-249.8,P33,-9.592,P32,-15.00,P3,-0.8883,P3,99.92,P49,4.253,P52
9251,C94,,17.9%,Max,149.8,P4,3.362,P2,-97.87,P49,-3.272,P4,1.804,P2,2.008,P2,247.1,P33,62.64,P28
9251,C94,,17.9%,Min,-126.3,P5,-1.432,P3,-247.1,P33,-9.592,P32,-62.64,P28,-1.337,P3,97.87,P49,2.699,P2
9251,C94,,21.4%,Max,149.8,P4,3.362,P2,-95.82,P49,-3.272,P4,-40.04,P2,1.757,P2,244.3,P33,150.3,P28
9251,C94,,21.4%,Min,-126.3,P5,-1.432,P3,-244.3,P33,-9.592,P32,-150.3,P28,-1.785,P3,95.82,P49,40.08,P2
9251,C94,,25.0%,Max,149.8,P4,3.362,P2,-93.78,P49,-3.272,P4,-81.14,P2,1.507,P2,241.5,P33,237.0,P28
9251,C94,,25.0%,Min,-126.3,P5,-1.432,P3,-241.5,P33,-9.592,P32,-237.0,P28,-2.233,P3,93.78,P49,81.16,P2
9251,C94,,28.6%,Max,149.8,P4,3.362,P2,-91.73,P49,-3.272,P4,-121.5,P2,1.256,P2,238.8,P33,322.8,P28
9251,C94,,28.6%,Min,-126.3,P5,-1.432,P3,-238.8,P33,-9.592,P32,-322.7,P28,-2.682,P3,91.73,P49,121.5,P2
9251,C94,,28.6%,Max,140.3,P4,2.109,P2,-45.79,P77,6.711,P6,-133.0,P2,1.505,P2,115.2,P32,347.6,P28
9251,C94,,28.6%,Min,-117.3,P5,-0.4133,P3,-115.2,P32,1.885,P5,-347.6,P28,-0.4164,P3,45.79,P77,133.0,P2
9251,C94,,32.1%,Max,140.3,P4,2.109,P2,-43.74,P77,6.711,P6,-152.5,P2,1.236,P2,112.4,P32,387.9,P28
9251,C94,,32.1%,Min,-117.3,P5,-0.4133,P3,-112.4,P32,1.885,P5,-387.9,P28,-0.7618,P3,43.75,P77,152.5,P2
9251,C94,,35.7%,Max,140.3,P4,2.109,P2,-41.70,P77,6.711,P6,-171.3,P2,0.9674,P2,109.7,P32,427.7,P33
9251,C94,,35.7%,Min,-117.3,P5,-0.4133,P3,-109.6,P32,1.885,P5,-427.7,P33,-1.107,P3,41.70,P77,171.3,P2
9251,C94,,39.3%,Max,140.3,P4,2.109,P2,-39.65,P77,6.711,P6,-188.5,P47,0.7029,P4,106.9,P32,466.9,P33
9251,C94,,39.3%,Min,-117.3,P5,-0.4133,P3,-106.9,P32,1.885,P5,-466.9,P33,-1.457,P5,39.65,P77,188.5,P47
9251,C94,,42.9%,Max,140.3,P4,2.109,P2,-37.61,P77,6.711,P6,-203.0,P47,0.4872,P4,104.1,P32,505.1,P33
9251,C94,,42.9%,Min,-117.3,P5,-0.4133,P3,-104.1,P32,1.885,P5,-505.1,P33,-1.855,P5,37.61,P77,203.0,P47
9251,C94,,42.9%,Max,133.6,P4,2.334,P2,-15.92,P48,8.995,P31,-204.4,P47,1.798,P2,43.37,P33,508.9,P33
9251,C94,,42.9%,Min,-110.0,P5,-0.9478,P3,-43.37,P33,2.763,P5,-508.9,P33,-1.088,P3,15.95,P48,204.4,P47
9251,C94,,46.4%,Max,133.6,P4,2.334,P2,-13.88,P48,8.995,P31,-210.1,P71,1.460,P2,40.61,P33,524.1,P33
9251,C94,,46.4%,Min,-110.0,P5,-0.9478,P3,-40.61,P33,2.763,P5,-524.1,P33,-1.253,P3,13.91,P48,210.1,P71
9251,C94,,50.0%,Max,133.6,P4,2.334,P2,-11.83,P48,8.995,P31,-215.0,P71,1.122,P2,37.85,P33,538.3,P33
9251,C94,,50.0%,Min,-110.0,P5,-0.9478,P3,-37.85,P33,2.763,P5,-538.3,P33,-1.417,P3,11.87,P48,215.0,P71
9251,C94,,53.6%,Max,133.6,P4,2.334,P2,-9.786,P48,8.995,P31,-219.0,P73,0.7844,P2,35.09,P33,551.5,P33
9251,C94,,53.6%,Min,-110.0,P5,-0.9478,P3,-35.08,P33,2.763,P5,-551.5,P33,-1.581,P3,9.827,P48,219.0,P73
9251,C94,,57.1%,Max,133.6,P4,2.334,P2,-7.740,P48,8.995,P31,-222.2,P73,0.4737,P69,32.33,P33,563.7,P33
9251,C94,,57.1%,Min,-110.0,P5,-0.9478,P3,-32.32,P33,2.763,P5,-563.7,P33,-1.745,P3,7.792,P48,222.2,P73
9251,C94,,57.1%,Max,119.9,P4,3.058,P2,80.29,P6,9.274,P33,-222.3,P73,2.254,P2,80.31,P6,564.9,P33
9251,C94,,57.1%,Min,-94.61,P5,-1.705,P3,28.77,P68,2.852,P5,-564.9,P33,-1.707,P3,28.81,P68,222.3,P73
9251,C94,,60.7%,Max,119.9,P4,3.058,P2,83.05,P6,9.274,P33,-210.4,P73,1.908,P2,83.07,P6,535.8,P33
9251,C94,,60.7%,Min,-94.61,P5,-1.705,P3,30.82,P68,2.852,P5,-535.8,P33,-1.851,P3,30.85,P68,210.4,P73
9251,C94,,64.3%,Max,119.9,P4,3.058,P2,85.81,P6,9.274,P33,-197.7,P73,1.562,P2,85.83,P6,505.7,P33
9251,C94,,64.3%,Min,-94.61,P5,-1.705,P3,32.87,P68,2.852,P5,-505.7,P33,-1.995,P3,32.89,P68,197.7,P73
9251,C94,,67.9%,Max,119.9,P4,3.058,P2,88.57,P6,9.274,P33,-184.2,P73,1.215,P2,88.59,P6,474.6,P33
9251,C94,,67.9%,Min,-94.61,P5,-1.705,P3,34.91,P68,2.852,P5,-474.6,P33,-2.139,P3,34.94,P68,184.2,P73
9251,C94,,71.4%,Max,119.9,P4,3.058,P2,91.33,P6,9.274,P33,-170.0,P73,1.304,P69,91.35,P6,442.5,P33
9251,C94,,71.4%,Min,-94.61,P5,-1.705,P3,36.96,P68,2.852,P5,-442.5,P33,-2.282,P3,36.98,P68,170.0,P73
9251,C94,,71.4%,Max,85.11,P4,3.104,P2,98.44,P24,-3.071,P4,-164.9,P73,2.397,P2,98.45,P24,427.8,P32
9251,C94,,71.4%,Min,-63.05,P5,-2.058,P3,33.25,P69,-8.327,P25,-427.8,P32,-1.975,P3,33.27,P69,164.9,P73
9251,C94,,75.0%,Max,85.11,P4,3.104,P2,101.2,P24,-3.071,P4,-149.0,P73,2.071,P2,101.2,P24,393.4,P33
9251,C94,,75.0%,Min,-63.05,P5,-2.058,P3,35.30,P69,-8.327,P25,-393.4,P33,-2.028,P3,35.31,P69,149.0,P73
9251,C94,,78.6%,Max,85.11,P4,3.104,P2,104.0,P24,-3.071,P4,-132.3,P73,1.745,P2,104.0,P24,358.0,P33
9251,C94,,78.6%,Min,-63.05,P5,-2.058,P3,37.34,P69,-8.327,P25,-358.0,P33,-2.081,P3,37.36,P69,132.3,P73
9251,C94,,82.1%,Max,85.11,P4,3.104,P2,106.7,P24,-3.071,P4,-114.8,P73,1.419,P2,106.7,P24,321.6,P33
9251,C94,,82.1%,Min,-63.05,P5,-2.058,P3,39.39,P69,-8.327,P25,-321.6,P33,-2.134,P3,39.40,P69,114.8,P73
9251,C94,,85.7%,Max,85.11,P4,3.104,P2,109.5,P24,-3.071,P4,-96.64,P73,1.178,P92,109.5,P24,284.2,P33
9251,C94,,85.7%,Min,-63.05,P5,-2.058,P3,41.43,P69,-8.327,P25,-284.2,P33,-2.227,P5,41.45,P69,96.65,P73
9251,C94,,85.7%,Max,41.79,P4,4.486,P4,212.8,P31,-0.009319,P4,-89.34,P49,2.681,P4,212.8,P31,256.4,P33
9251,C94,,85.7%,Min,-27.07,P5,-3.987,P5,84.74,P92,-2.534,P7,-256.4,P33,-2.879,P5,84.74,P92,89.35,P49
9251,C94,,89.3%,Max,41.79,P4,4.486,P4,215.6,P31,-0.009319,P4,-57.20,P73,2.764,P4,215.6,P31,179.3,P33
9251,C94,,89.3%,Min,-27.07,P5,-3.987,P5,86.78,P92,-2.534,P7,-179.3,P33,-3.142,P5,86.78,P92,57.21,P73
9251,C94,,92.9%,Max,41.79,P4,4.486,P4,218.3,P31,-0.009319,P4,-24.19,P73,2.846,P4,218.3,P31,101.2,P33
9251,C94,,92.9%,Min,-27.07,P5,-3.987,P5,88.83,P92,-2.534,P7,-101.2,P33,-3.405,P5,88.83,P92,24.21,P73
9251,C94,,96.4%,Max,41.79,P4,4.486,P4,221.1,P31,-0.009319,P4,9.565,P73,2.929,P4,221.1,P31,25.72,P21
9251,C94,,96.4%,Min,-27.07,P5,-3.987,P5,90.87,P92,-2.534,P7,-25.72,P21,-3.668,P5,90.87,P92,0.6024,P38
9251,C94,7731,100.0%,Max,41.79,P4,4.486,P4,223.8,P31,-0.009319,P4,72.25,P6,3.012,P4,223.9,P31,72.26,P6
9251,C94,7731,100.0%,Min,-27.07,P5,-3.987,P5,92.92,P92,-2.534,P7,9.437,P69,-3.932,P5,92.92,P92,9.437,P69
9264,C94,7121,0.0%,Max,211.1,P4,3.625,P2,-38.44,P4,0.3227,P33,121.2,P6,3.143,P2,72.90,P33,121.2,P6
9264,C94,7121,0.0%,Min,-175.4,P5,-4.104,P3,-72.90,P33,0.1427,P5,61.84,P5,-3.612,P3,38.52,P4,61.89,P5
9264,C94,,12.5%,Max,211.1,P4,3.625,P2,-36.70,P4,0.3227,P33,91.66,P6,3.148,P2,70.54,P33,91.66,P6
9264,C94,,12.5%,Min,-175.4,P5,-4.104,P3,-70.54,P33,0.1427,P5,46.20,P5,-3.420,P3,36.77,P4,46.26,P5
9264,C94,,25.0%,Max,211.1,P4,3.625,P2,-34.95,P4,0.3227,P33,63.09,P6,3.153,P2,68.18,P33,63.09,P6
9264,C94,,25.0%,Min,-175.4,P5,-4.104,P3,-68.18,P33,0.1427,P5,31.28,P5,-3.228,P3,35.03,P4,31.36,P5
9264,C94,,37.5%,Max,211.1,P4,3.625,P2,-33.20,P4,0.3227,P33,35.48,P6,3.158,P2,65.82,P33,35.48,P6
9264,C94,,37.5%,Min,-175.4,P5,-4.104,P3,-65.82,P33,0.1427,P5,17.08,P5,-3.036,P3,33.28,P4,17.20,P5
9264,C94,,50.0%,Max,211.1,P4,3.625,P2,-31.45,P4,0.3227,P33,11.33,P4,3.163,P2,63.46,P33,11.53,P4
9264,C94,,50.0%,Min,-175.4,P5,-4.104,P3,-63.46,P33,0.1427,P5,3.608,P5,-2.844,P3,31.54,P4,4.050,P5
9264,C94,,50.0%,Max,207.1,P4,3.758,P2,-19.14,P4,0.3331,P6,-3.947,P4,2.856,P2,36.77,P21,12.08,P33
9264,C94,,50.0%,Min,-166.7,P5,-4.022,P3,-36.77,P21,0.1098,P3,-12.08,P33,-3.188,P3,19.30,P4,4.332,P4
9264,C94,,62.5%,Max,207.1,P4,3.758,P2,-17.40,P4,0.3331,P6,-12.00,P4,3.006,P2,34.41,P21,26.31,P33
9264,C94,,62.5%,Min,-166.7,P5,-4.022,P3,-34.41,P21,0.1098,P3,-26.31,P33,-3.229,P3,17.56,P4,12.16,P4
9264,C94,,75.0%,Max,207.1,P4,3.758,P2,-15.65,P4,0.3331,P6,-19.34,P4,3.155,P2,32.05,P21,39.71,P21
9264,C94,,75.0%,Min,-166.7,P5,-4.022,P3,-32.05,P21,0.1098,P3,-39.71,P21,-3.269,P3,15.83,P4,19.45,P4
9264,C94,,87.5%,Max,207.1,P4,3.758,P2,-13.90,P4,0.3331,P6,-25.95,P4,3.304,P2,29.69,P21,52.45,P21
9264,C94,,87.5%,Min,-166.7,P5,-4.022,P3,-29.69,P21,0.1098,P3,-52.45,P21,-3.309,P3,14.11,P4,26.05,P4
9264,C94,4890,100.0%,Max,207.1,P4,3.758,P2,-12.15,P4,0.3331,P6,-31.85,P4,3.454,P2,27.33,P21,64.22,P21
9264,C94,4890,100.0%,Min,-166.7,P5,-4.022,P3,-27.33,P21,0.1098,P3,-64.22,P21,-3.349,P3,12.39,P4,31.93,P4
9265,C94,4891,0.0%,Max,208.2,P4,3.833,P2,26.56,P7,0.2335,P33,-33.49,P4,3.314,P2,26.57,P7,67.41,P7
9265,C94,4891,0.0%,Min,-166.5,P5,-3.959,P3,11.79,P5,0.04524,P5,-67.41,P7,-3.546,P3,12.03,P5,33.55,P4
9265,C94,,12.5%,Max,208.2,P4,3.833,P2,28.92,P7,0.2335,P33,-27.94,P4,3.234,P2,28.93,P7,55.96,P7
9265,C94,,12.5%,Min,-166.5,P5,-3.959,P3,13.54,P5,0.04524,P5,-55.96,P7,-3.414,P3,13.75,P5,28.01,P4
9265,C94,,25.0%,Max,208.2,P4,3.833,P2,31.28,P7,0.2335,P33,-21.67,P4,3.153,P2,31.29,P7,43.86,P6
9265,C94,,25.0%,Min,-166.5,P5,-3.959,P3,15.29,P5,0.04524,P5,-43.86,P6,-3.281,P3,15.47,P5,21.75,P4
9265,C94,,37.5%,Max,208.2,P4,3.833,P2,33.64,P7,0.2335,P33,-14.68,P4,3.072,P2,33.65,P7,30.99,P32
9265,C94,,37.5%,Min,-166.5,P5,-3.959,P3,17.04,P5,0.04524,P5,-30.99,P32,-3.148,P3,17.20,P5,14.78,P4
9265,C94,,50.0%,Max,208.2,P4,3.833,P2,36.00,P7,0.2335,P33,-6.960,P4,2.992,P2,36.01,P7,17.49,P32
9265,C94,,50.0%,Min,-166.5,P5,-3.959,P3,18.79,P5,0.04524,P5,-17.49,P32,-3.015,P3,18.94,P5,7.170,P4
9265,C94,,50.0%,Max,211.4,P4,3.693,P2,66.75,P6,-0.3664,P4,7.496,P4,2.829,P2,66.75,P6,7.674,P4
9265,C94,,50.0%,Min,-174.8,P5,-3.646,P3,33.11,P5,-0.8379,P33,1.355,P5,-2.845,P3,33.15,P58,2.144,P5
9265,C94,,62.5%,Max,211.4,P4,3.693,P2,69.11,P6,-0.3664,P4,32.19,P7,2.915,P2,69.11,P6,32.19,P7
9265,C94,,62.5%,Min,-174.8,P5,-3.646,P3,34.86,P5,-0.8379,P33,15.58,P5,-2.951,P3,34.89,P58,15.67,P5
9265,C94,,75.0%,Max,211.4,P4,3.693,P2,71.47,P6,-0.3664,P4,61.04,P6,3.002,P2,71.47,P6,61.04,P6
9265,C94,,75.0%,Min,-174.8,P5,-3.646,P3,36.61,P5,-0.8379,P33,30.52,P5,-3.057,P3,36.64,P58,30.58,P5
9265,C94,,87.5%,Max,211.4,P4,3.693,P2,73.83,P6,-0.3664,P4,91.02,P6,3.089,P2,73.83,P6,91.02,P6
9265,C94,,87.5%,Min,-174.8,P5,-3.646,P3,38.36,P5,-0.8379,P33,46.19,P5,-3.163,P3,38.39,P58,46.23,P5
9265,C94,7121,100.0%,Max,211.4,P4,3.693,P2,76.19,P6,-0.3664,P4,122.0,P6,3.175,P2,76.19,P6,122.0,P6
9265,C94,7121,100.0%,Min,-174.8,P5,-3.646,P3,40.11,P5,-0.8379,P33,62.58,P5,-3.268,P3,40.14,P58,62.61,P5
9266,C94,7132,0.0%,Max,149.2,P2,0.7762,P2,-10.23,P2,11.98,P8,-7.544,P2,0.6773,P2,25.53,P31,60.60,P8
9266,C94,7132,0.0%,Min,-136.9,P3,-0.1252,P3,-25.53,P31,4.343,P3,-60.59,P8,-0.08934,P3,10.26,P2,7.574,P2
9266,C94,,8.3%,Max,149.2,P2,0.7762,P2,-8.785,P2,11.98,P8,-12.75,P2,0.5456,P2,23.59,P31,68.61,P8
9266,C94,,8.3%,Min,-136.9,P3,-0.1252,P3,-23.58,P31,4.343,P3,-68.61,P8,-0.1793,P3,8.819,P2,12.76,P2
9266,C94,,16.7%,Max,149.2,P2,0.7762,P2,-7.343,P2,11.98,P8,-17.47,P2,0.4317,P4,21.64,P31,75.96,P8
9266,C94,,16.7%,Min,-136.9,P3,-0.1252,P3,-21.63,P31,4.343,P3,-75.96,P8,-0.2870,P5,7.384,P2,17.48,P2
9266,C94,,25.0%,Max,149.2,P2,0.7762,P2,-5.901,P2,11.98,P8,-21.70,P2,0.3342,P4,19.69,P31,82.65,P8
9266,C94,,25.0%,Min,-136.9,P3,-0.1252,P3,-19.69,P31,4.343,P3,-82.65,P8,-0.4110,P5,5.952,P2,21.70,P2
9266,C94,,33.3%,Max,149.2,P2,0.7762,P2,-4.459,P2,11.98,P8,-25.44,P2,0.2366,P4,17.75,P31,88.68,P8
9266,C94,,33.3%,Min,-136.9,P3,-0.1252,P3,-17.74,P31,4.343,P3,-88.68,P8,-0.5350,P5,4.526,P2,25.44,P2
9266,C94,,33.3%,Max,160.3,P2,0.5670,P2,21.72,P8,0.4855,P4,-25.15,P2,0.4853,P2,21.72,P8,86.69,P8
9266,C94,,33.3%,Min,-132.0,P3,-0.1075,P3,1.351,P3,-0.6486,P5,-86.69,P8,-0.1967,P3,1.356,P3,25.16,P2
9266,C94,,41.7%,Max,160.3,P2,0.5670,P2,23.67,P8,0.4855,P4,-24.00,P2,0.3845,P2,23.67,P8,78.96,P8
9266,C94,,41.7%,Min,-132.0,P3,-0.1075,P3,2.793,P3,-0.6486,P5,-78.96,P8,-0.2523,P3,2.795,P3,24.00,P2
9266,C94,,50.0%,Max,160.3,P2,0.5670,P2,25.62,P8,0.4855,P4,-20.91,P4,0.2837,P2,25.62,P8,70.88,P30
9266,C94,,50.0%,Min,-132.0,P3,-0.1075,P3,4.235,P3,-0.6486,P5,-70.88,P30,-0.3079,P3,4.237,P3,20.91,P4
9266,C94,,58.3%,Max,160.3,P2,0.5670,P2,27.56,P8,0.4855,P4,-17.31,P4,0.1828,P2,27.56,P8,62.22,P30
9266,C94,,58.3%,Min,-132.0,P3,-0.1075,P3,5.677,P3,-0.6486,P5,-62.22,P30,-0.3635,P3,5.679,P3,17.31,P4
9266,C94,,66.7%,Max,160.3,P2,0.5670,P2,29.51,P8,0.4855,P4,-13.22,P4,0.08199,P2,29.51,P8,52.91,P30
9266,C94,,66.7%,Min,-132.0,P3,-0.1075,P3,7.120,P3,-0.6486,P5,-52.91,P30,-0.4191,P3,7.120,P3,13.22,P4
9266,C94,,66.7%,Max,174.5,P2,2.514,P2,52.76,P8,-1.250,P2,-10.68,P4,1.197,P2,52.76,P8,47.03,P30
9266,C94,,66.7%,Min,-125.0,P3,-1.375,P3,14.69,P3,-4.177,P22,-47.03,P30,-0.7379,P3,14.76,P3,10.74,P4
9266,C94,,75.0%,Max,174.5,P2,2.514,P2,54.71,P8,-1.250,P2,-1.501,P4,1.184,P2,54.71,P8,29.09,P31
9266,C94,,75.0%,Min,-125.0,P3,-1.375,P3,16.14,P3,-4.177,P22,-29.09,P31,-1.113,P3,16.19,P3,1.821,P4
9266,C94,,83.3%,Max,174.5,P2,2.514,P2,56.66,P8,-1.250,P2,8.171,P4,1.171,P2,56.66,P8,17.66,P5
9266,C94,,83.3%,Min,-125.0,P3,-1.375,P3,17.58,P3,-4.177,P22,-17.62,P5,-1.487,P3,17.63,P3,2.062,P60
9266,C94,,91.7%,Max,174.5,P2,2.514,P2,58.60,P8,-1.250,P2,18.78,P2,1.158,P2,58.60,P8,18.82,P2
9266,C94,,91.7%,Min,-125.0,P3,-1.375,P3,19.02,P3,-4.177,P22,-7.479,P3,-1.862,P3,19.07,P3,1.693,P55
9266,C94,5219,100.0%,Max,174.5,P2,2.514,P2,60.55,P8,-1.250,P2,31.61,P24,1.145,P2,60.55,P8,31.62,P24
9266,C94,5219,100.0%,Min,-125.0,P3,-1.375,P3,20.46,P3,-4.177,P22,1.858,P3,-2.236,P3,20.51,P3,2.907,P3
9281,C94,4791,0.0%,Max,63.48,P76,15.64,P2,-208.3,P79,28.89,P7,274.0,P7,17.93,P2,498.9,P8,274.2,P7
9281,C94,4791,0.0%,Min,-63.90,P93,-13.27,P3,-498.8,P8,4.980,P93,47.03,P93,-14.77,P3,208.6,P79,49.70,P93
9281,C94,,3.6%,Max,63.48,P76,15.64,P2,-203.7,P79,28.89,P7,104.0,P7,15.04,P2,492.6,P8,104.2,P7
9281,C94,,3.6%,Min,-63.90,P93,-13.27,P3,-492.5,P8,4.980,P93,-47.31,P93,-12.82,P3,204.0,P79,4.076,P64
9281,C94,,7.1%,Max,63.48,P76,15.64,P2,-199.0,P79,28.89,P7,19.05,P79,12.16,P2,486.3,P8,202.9,P9
9281,C94,,7.1%,Min,-63.90,P93,-13.27,P3,-486.2,P8,4.980,P93,-202.8,P9,-10.88,P3,199.3,P79,3.604,P81
9281,C94,,10.7%,Max,63.48,P76,15.64,P2,-194.4,P79,28.89,P7,-58.82,P79,9.273,P2,480.0,P8,380.1,P8
9281,C94,,10.7%,Min,-63.90,P93,-13.27,P3,-480.0,P8,4.980,P93,-380.1,P8,-8.929,P3,194.7,P79,58.82,P79
9281,C94,,14.3%,Max,63.48,P76,15.64,P2,-189.7,P79,28.89,P7,-134.8,P79,6.388,P2,473.7,P8,568.8,P8
9281,C94,,14.3%,Min,-63.90,P93,-13.27,P3,-473.7,P8,4.980,P93,-568.8,P8,-6.982,P3,190.0,P79,134.9,P79
9281,C94,,14.3%,Max,94.74,P76,5.835,P2,-204.0,P4,-4.132,P93,-166.7,P79,5.777,P9,474.8,P6,621.2,P8
9281,C94,,14.3%,Min,-99.67,P93,-4.857,P79,-474.8,P6,-19.22,P6,-621.2,P8,-4.817,P79,204.1,P4,166.7,P79
9281,C94,,17.9%,Max,94.74,P76,5.835,P2,-199.4,P4,-4.132,P93,-256.3,P79,4.941,P2,468.5,P6,803.7,P8
9281,C94,,17.9%,Min,-99.67,P93,-4.857,P79,-468.5,P6,-19.22,P6,-803.7,P8,-3.829,P3,199.4,P4,256.3,P79
9281,C94,,21.4%,Max,94.74,P76,5.835,P2,-194.7,P4,-4.132,P93,-344.0,P79,4.456,P2,462.2,P6,983.6,P8
9281,C94,,21.4%,Min,-99.67,P93,-4.857,P79,-462.2,P6,-19.22,P6,-983.6,P8,-3.859,P3,194.8,P4,344.0,P79
9281,C94,,25.0%,Max,94.74,P76,5.835,P2,-190.0,P4,-4.132,P93,-429.9,P79,3.972,P2,455.9,P6,1161.,P8
9281,C94,,25.0%,Min,-99.67,P93,-4.857,P79,-455.9,P6,-19.22,P6,-1161.,P8,-3.889,P3,190.1,P4,429.9,P79
9281,C94,,28.6%,Max,94.74,P76,5.835,P2,-185.4,P4,-4.132,P93,-514.0,P79,3.487,P2,449.6,P6,1336.,P8
9281,C94,,28.6%,Min,-99.67,P93,-4.857,P79,-449.6,P6,-19.22,P6,-1336.,P8,-3.919,P3,185.5,P4,514.0,P79
9281,C94,,28.6%,Max,85.20,P76,2.110,P2,-123.8,P4,0.7112,P2,-526.5,P79,1.812,P4,287.6,P6,1362.,P8
9281,C94,,28.6%,Min,-91.70,P93,-1.569,P3,-287.6,P6,-1.140,P3,-1362.,P8,-1.018,P5,123.8,P4,526.5,P79
9281,C94,,32.1%,Max,85.20,P76,2.110,P2,-119.1,P4,0.7112,P2,-580.0,P79,1.761,P2,281.3,P6,1474.,P8
9281,C94,,32.1%,Min,-91.70,P93,-1.569,P3,-281.3,P6,-1.140,P3,-1474.,P8,-1.181,P3,119.1,P4,580.0,P79
9281,C94,,35.7%,Max,85.20,P76,2.110,P2,-114.4,P4,0.7112,P2,-631.6,P79,1.803,P2,275.1,P6,1584.,P8
9281,C94,,35.7%,Min,-91.70,P93,-1.569,P3,-275.1,P6,-1.140,P3,-1584.,P8,-1.438,P3,114.5,P4,631.6,P79
9281,C94,,39.3%,Max,85.20,P76,2.110,P2,-109.8,P4,0.7112,P2,-681.4,P79,1.844,P2,268.8,P6,1691.,P8
9281,C94,,39.3%,Min,-91.70,P93,-1.569,P3,-268.8,P6,-1.140,P3,-1691.,P8,-1.694,P3,109.8,P4,681.4,P79
9281,C94,,42.9%,Max,85.20,P76,2.110,P2,-105.1,P4,0.7112,P2,-729.3,P79,1.886,P2,262.5,P6,1796.,P8
9281,C94,,42.9%,Min,-91.70,P93,-1.569,P3,-262.5,P6,-1.140,P3,-1796.,P8,-1.950,P3,105.1,P4,729.3,P79
9281,C94,,42.9%,Max,73.93,P76,1.631,P2,-76.23,P4,-1.049,P2,-737.3,P79,1.556,P4,176.2,P6,1812.,P8
9281,C94,,42.9%,Min,-82.19,P93,-1.125,P3,-176.2,P6,-6.997,P7,-1812.,P8,-0.8715,P5,76.25,P4,737.3,P79
9281,C94,,46.4%,Max,73.93,P76,1.631,P2,-71.57,P4,-1.049,P2,-773.1,P79,1.542,P2,169.9,P6,1878.,P8
9281,C94,,46.4%,Min,-82.19,P93,-1.125,P3,-169.9,P6,-6.997,P7,-1878.,P8,-1.057,P3,71.59,P4,773.1,P79
9281,C94,,50.0%,Max,73.93,P76,1.631,P2,-66.91,P4,-1.049,P2,-807.0,P79,1.547,P2,163.6,P6,1942.,P8
9281,C94,,50.0%,Min,-82.19,P93,-1.125,P3,-163.6,P6,-6.997,P7,-1942.,P8,-1.263,P3,66.93,P4,807.0,P79
9281,C94,,53.6%,Max,73.93,P76,1.631,P2,-62.26,P4,-1.049,P2,-839.0,P79,1.552,P2,157.4,P6,2003.,P8
9281,C94,,53.6%,Min,-82.19,P93,-1.125,P3,-157.4,P6,-6.997,P7,-2003.,P8,-1.468,P3,62.27,P4,839.0,P79
9281,C94,,57.1%,Max,73.93,P76,1.631,P2,-57.60,P4,-1.049,P2,-869.2,P79,1.557,P2,151.1,P6,2062.,P8
9281,C94,,57.1%,Min,-82.19,P93,-1.125,P3,-151.1,P6,-6.997,P7,-2062.,P8,-1.674,P3,57.62,P4,869.2,P79
9281,C94,,57.1%,Max,63.21,P76,1.840,P2,-13.02,P4,0.9523,P2,-872.4,P79,1.871,P2,22.95,P7,2067.,P8
9281,C94,,57.1%,Min,-73.23,P93,-1.226,P3,-22.95,P7,-0.8845,P3,-2067.,P8,-1.218,P3,13.14,P4,872.4,P79
9281,C94,,60.7%,Max,63.21,P76,1.840,P2,-8.356,P4,0.9523,P2,-878.7,P4,1.763,P2,17.50,P5,2074.,P8
9281,C94,,60.7%,Min,-73.23,P93,-1.226,P3,-17.46,P5,-0.8845,P3,-2074.,P8,-1.352,P3,8.555,P4,878.7,P4
9281,C94,,64.3%,Max,63.21,P76,1.840,P2,-3.698,P4,0.9523,P2,-881.9,P4,1.654,P2,12.85,P5,2078.,P8
9281,C94,,64.3%,Min,-73.23,P93,-1.226,P3,-12.80,P5,-0.8845,P3,-2078.,P8,-1.487,P3,4.128,P4,881.9,P4
9281,C94,,67.9%,Max,63.21,P76,1.840,P2,0.9611,P4,0.9523,P2,-883.2,P4,1.545,P2,8.229,P5,2079.,P8
9281,C94,,67.9%,Min,-73.23,P93,-1.226,P3,-8.138,P5,-0.8845,P3,-2079.,P8,-1.621,P3,0.7890,P8,883.2,P4
9281,C94,,71.4%,Max,63.21,P76,1.840,P2,5.673,P8,0.9523,P2,-882.7,P4,1.436,P2,5.912,P4,2078.,P8
9281,C94,,71.4%,Min,-73.23,P93,-1.226,P3,-3.479,P5,-0.8845,P3,-2078.,P8,-1.756,P3,0.2240,P56,882.7,P4
9281,C94,,71.4%,Max,54.22,P79,3.244,P2,113.9,P8,0.2170,P2,-881.4,P4,2.782,P2,113.9,P8,2074.,P8
9281,C94,,71.4%,Min,-65.77,P9,-2.179,P3,34.18,P3,-2.922,P7,-2074.,P8,-1.975,P3,34.25,P3,881.4,P4
9281,C94,,75.0%,Max,54.22,P79,3.244,P2,120.1,P8,0.2170,P2,-866.4,P4,2.565,P2,120.1,P8,2028.,P8
9281,C94,,75.0%,Min,-65.77,P9,-2.179,P3,38.84,P3,-2.922,P7,-2028.,P8,-2.179,P3,38.90,P3,866.4,P4
9281,C94,,78.6%,Max,54.22,P79,3.244,P2,126.4,P8,0.2170,P2,-849.6,P4,2.349,P2,126.4,P8,1979.,P8
9281,C94,,78.6%,Min,-65.77,P9,-2.179,P3,43.50,P3,-2.922,P7,-1979.,P8,-2.384,P3,43.55,P3,849.6,P4
9281,C94,,82.1%,Max,54.22,P79,3.244,P2,132.7,P8,0.2170,P2,-830.9,P4,2.132,P2,132.7,P8,1928.,P8
9281,C94,,82.1%,Min,-65.77,P9,-2.179,P3,48.15,P3,-2.922,P7,-1928.,P8,-2.588,P3,48.20,P3,830.9,P4
9281,C94,,85.7%,Max,54.22,P79,3.244,P2,139.0,P8,0.2170,P2,-810.4,P4,1.915,P2,139.0,P8,1874.,P8
9281,C94,,85.7%,Min,-65.77,P9,-2.179,P3,52.81,P3,-2.922,P7,-1874.,P8,-2.793,P3,52.86,P3,810.4,P4
9281,C94,,85.7%,Max,50.22,P79,11.16,P2,251.2,P8,0.8590,P4,-805.1,P4,6.435,P2,251.2,P8,1860.,P8
9281,C94,,85.7%,Min,-61.94,P9,-7.440,P3,88.79,P3,-0.6627,P5,-1860.,P8,-4.438,P3,89.10,P3,805.1,P4
9281,C94,,89.3%,Max,50.22,P79,11.16,P2,257.5,P8,0.8590,P4,-768.0,P4,6.701,P2,257.5,P8,1759.,P8
9281,C94,,89.3%,Min,-61.94,P9,-7.440,P3,93.45,P3,-0.6627,P5,-1759.,P8,-6.177,P3,93.74,P3,768.0,P4
9281,C94,,92.9%,Max,50.22,P79,11.16,P2,263.7,P8,0.8590,P4,-727.9,P79,6.968,P2,263.8,P8,1656.,P8
9281,C94,,92.9%,Min,-61.94,P9,-7.440,P3,98.10,P3,-0.6627,P5,-1656.,P8,-7.917,P3,98.39,P3,727.9,P79
9281,C94,,96.4%,Max,50.22,P79,11.16,P2,270.0,P8,0.8590,P4,-683.8,P79,7.235,P4,270.0,P8,1550.,P8
9281,C94,,96.4%,Min,-61.94,P9,-7.440,P3,102.8,P3,-0.6627,P5,-1550.,P8,-9.657,P5,103.0,P3,683.8,P79
9281,C94,6073,100.0%,Max,50.22,P79,11.16,P2,276.3,P8,0.8590,P4,-637.9,P79,7.607,P4,276.3,P8,1442.,P8
9281,C94,6073,100.0%,Min,-61.94,P9,-7.440,P3,107.4,P3,-0.6627,P5,-1442.,P8,-11.50,P5,107.7,P3,637.9,P79
9292,C94,5217,0.0%,Max,114.1,P4,0.4005,P4,-20.29,P4,10.43,P22,44.77,P24,0.4946,P4,45.48,P24,44.77,P24
9292,C94,5217,0.0%,Min,-155.5,P5,-0.3672,P5,-45.48,P24,4.141,P77,16.91,P5,-0.3958,P5,20.30,P4,16.91,P5
9292,C94,,8.3%,Max,114.1,P4,0.4005,P4,-18.60,P4,10.43,P22,27.00,P24,0.4329,P4,43.19,P24,27.00,P24
9292,C94,,8.3%,Min,-155.5,P5,-0.3672,P5,-43.19,P24,4.141,P77,8.221,P5,-0.3474,P5,18.60,P4,8.229,P5
9292,C94,,16.7%,Max,114.1,P4,0.4005,P4,-16.90,P4,10.43,P22,10.24,P6,0.3711,P4,40.89,P24,10.24,P6
9292,C94,,16.7%,Min,-155.5,P5,-0.3672,P5,-40.89,P24,4.141,P77,0.2132,P5,-0.2989,P5,16.90,P4,0.3672,P5
9292,C94,,25.0%,Max,114.1,P4,0.4005,P4,-15.20,P4,10.43,P22,0.02374,P2,0.3093,P4,38.60,P24,7.224,P3
9292,C94,,25.0%,Min,-155.5,P5,-0.3672,P5,-38.60,P24,4.141,P77,-7.221,P3,-0.2505,P5,15.20,P4,0.2781,P2
9292,C94,,33.3%,Max,114.1,P4,0.4005,P4,-13.50,P4,10.43,P22,-7.943,P2,0.2544,P2,36.31,P24,20.81,P24
9292,C94,,33.3%,Min,-155.5,P5,-0.3672,P5,-36.31,P24,4.141,P77,-20.81,P24,-0.2090,P3,13.51,P4,7.947,P2
9292,C94,,33.3%,Max,101.0,P4,0.3337,P4,0.9117,P2,0.1590,P2,-13.88,P2,0.4221,P4,2.890,P3,33.67,P24
9292,C94,,33.3%,Min,-145.7,P5,-0.2768,P5,-2.882,P3,-0.1823,P3,-33.67,P24,-0.2654,P5,0.4950,P32,13.88,P2
9292,C94,,41.7%,Max,101.0,P4,0.3337,P4,2.610,P2,0.1590,P2,-13.78,P2,0.3735,P4,2.625,P2,33.58,P24
9292,C94,,41.7%,Min,-145.7,P5,-0.2768,P5,-1.183,P3,-0.1823,P3,-33.58,P24,-0.2396,P5,0.07129,P84,13.79,P2
9292,C94,,50.0%,Max,101.0,P4,0.3337,P4,4.309,P2,0.1590,P2,-13.01,P2,0.3249,P4,4.318,P2,32.57,P24
9292,C94,,50.0%,Min,-145.7,P5,-0.2768,P5,0.5154,P3,-0.1823,P3,-32.57,P24,-0.2138,P5,0.5592,P3,13.01,P2
9292,C94,,58.3%,Max,101.0,P4,0.3337,P4,6.384,P32,0.1590,P2,-11.55,P2,0.2763,P4,6.384,P32,30.65,P24
9292,C94,,58.3%,Min,-145.7,P5,-0.2768,P5,2.214,P3,-0.1823,P3,-30.65,P24,-0.1880,P5,2.225,P3,11.55,P2
9292,C94,,66.7%,Max,101.0,P4,0.3337,P4,8.677,P32,0.1590,P2,-9.409,P2,0.2330,P2,8.677,P32,27.81,P24
9292,C94,,66.7%,Min,-145.7,P5,-0.2768,P5,3.913,P3,-0.1823,P3,-27.81,P24,-0.1676,P3,3.919,P3,9.412,P2
9292,C94,,66.7%,Max,87.37,P4,0.6318,P2,53.04,P32,-4.996,P57,-4.484,P2,0.6505,P4,53.04,P32,20.11,P24
9292,C94,,66.7%,Min,-134.6,P5,-0.8015,P3,19.59,P5,-12.51,P25,-20.11,P24,-0.6432,P5,19.60,P5,4.520,P2
9292,C94,,75.0%,Max,87.37,P4,0.6318,P2,55.34,P32,-4.996,P57,9.056,P2,0.6195,P2,55.34,P32,9.077,P2
9292,C94,,75.0%,Min,-134.6,P5,-0.8015,P3,21.29,P5,-12.51,P25,-6.077,P3,-0.5442,P3,21.29,P5,0.08282,P60
9292,C94,,83.3%,Max,87.37,P4,0.6318,P2,57.63,P32,-4.996,P57,25.08,P6,0.6716,P2,57.63,P32,25.09,P6
9292,C94,,83.3%,Min,-134.6,P5,-0.8015,P3,22.98,P5,-12.51,P25,3.237,P5,-0.5283,P3,22.99,P5,3.264,P5
9292,C94,,91.7%,Max,87.37,P4,0.6318,P2,59.92,P32,-4.996,P57,48.65,P6,0.7237,P2,59.92,P32,48.65,P6
9292,C94,,91.7%,Min,-134.6,P5,-0.8015,P3,24.68,P5,-12.51,P25,13.20,P5,-0.5124,P3,24.69,P5,13.20,P5
9292,C94,6034,100.0%,Max,87.37,P4,0.6318,P2,62.22,P32,-4.996,P57,73.13,P6,0.7758,P2,62.22,P32,73.13,P6
9292,C94,6034,100.0%,Min,-134.6,P5,-0.8015,P3,26.38,P5,-12.51,P25,23.84,P5,-0.4964,P3,26.39,P5,23.84,P5
9293,C94,6034,0.0%,Max,83.60,P2,0.6601,P4,-25.37,P4,18.91,P33,75.11,P6,0.6824,P4,71.10,P6,75.11,P6
9293,C94,6034,0.0%,Min,-131.3,P3,-0.4842,P5,-71.10,P6,7.527,P61,23.45,P5,-0.4051,P5,25.38,P4,23.45,P5
9293,C94,,6.3%,Max,83.60,P2,0.6601,P4,-23.91,P4,18.91,P33,50.82,P6,0.5830,P4,69.11,P6,50.82,P6
9293,C94,,6.3%,Min,-131.3,P3,-0.4842,P5,-69.11,P6,7.527,P61,13.87,P5,-0.3667,P5,23.91,P4,13.88,P5
9293,C94,,12.5%,Max,83.60,P2,0.6601,P4,-22.44,P4,18.91,P33,27.21,P6,0.4836,P4,67.13,P6,27.21,P6
9293,C94,,12.5%,Min,-131.3,P3,-0.4842,P5,-67.13,P6,7.527,P61,4.800,P5,-0.3283,P5,22.45,P4,4.811,P5
9293,C94,,18.8%,Max,83.60,P2,0.6601,P4,-20.97,P4,18.91,P33,9.759,P4,0.3842,P4,65.15,P6,9.767,P4
9293,C94,,18.8%,Min,-131.3,P3,-0.4842,P5,-65.15,P6,7.527,P61,-3.763,P5,-0.2898,P5,20.98,P4,2.026,P60
9293,C94,,25.0%,Max,83.60,P2,0.6601,P4,-19.50,P4,18.91,P33,-4.831,P2,0.2847,P4,63.17,P6,18.41,P24
9293,C94,,25.0%,Min,-131.3,P3,-0.4842,P5,-63.17,P6,7.527,P61,-18.41,P24,-0.2514,P5,19.51,P4,4.837,P2
9293,C94,,25.0%,Max,91.38,P2,0.6809,P4,-5.604,P4,8.077,P24,-7.543,P2,0.6585,P4,24.63,P6,23.65,P24
9293,C94,,25.0%,Min,-136.7,P3,-0.7650,P5,-24.63,P6,3.066,P5,-23.65,P24,-0.5866,P5,5.646,P4,7.555,P2
9293,C94,,31.3%,Max,91.38,P2,0.6809,P4,-4.136,P4,8.077,P24,-9.920,P4,0.6152,P4,22.65,P6,31.76,P6
9293,C94,,31.3%,Min,-136.7,P3,-0.7650,P5,-22.65,P6,3.066,P5,-31.76,P6,-0.5142,P5,4.192,P4,9.939,P4
9293,C94,,37.5%,Max,91.38,P2,0.6809,P4,-2.668,P4,8.077,P24,-11.54,P4,0.5719,P4,20.67,P6,39.27,P6
9293,C94,,37.5%,Min,-136.7,P3,-0.7650,P5,-20.67,P6,3.066,P5,-39.27,P6,-0.4418,P5,2.754,P4,11.55,P4
9293,C94,,43.8%,Max,91.38,P2,0.6809,P4,-1.200,P4,8.077,P24,-12.65,P4,0.5287,P4,18.69,P6,46.09,P6
9293,C94,,43.8%,Min,-136.7,P3,-0.7650,P5,-18.69,P6,3.066,P5,-46.09,P6,-0.3694,P5,1.380,P4,12.66,P4
9293,C94,,50.0%,Max,91.38,P2,0.6809,P4,0.2683,P4,8.077,P24,-13.25,P4,0.4854,P4,16.70,P6,52.22,P6
9293,C94,,50.0%,Min,-136.7,P3,-0.7650,P5,-16.70,P6,3.066,P5,-52.22,P6,-0.2969,P5,0.7319,P4,13.26,P4
9293,C94,,50.0%,Max,99.12,P2,0.5317,P4,51.20,P24,-6.227,P2,-14.90,P4,0.5855,P4,51.20,P24,57.19,P6
9293,C94,,50.0%,Min,-139.7,P3,-0.5766,P5,19.87,P3,-15.58,P6,-57.19,P6,-0.5140,P5,19.88,P3,14.91,P4
9293,C94,,56.3%,Max,99.12,P2,0.5317,P4,53.18,P24,-6.227,P2,-5.655,P4,0.5263,P4,53.18,P24,39.34,P6
9293,C94,,56.3%,Min,-139.7,P3,-0.5766,P5,21.34,P3,-15.58,P6,-39.34,P6,-0.4392,P5,21.35,P3,5.679,P4
9293,C94,,62.5%,Max,99.12,P2,0.5317,P4,55.16,P24,-6.227,P2,4.095,P4,0.4671,P4,55.16,P24,25.26,P5
9293,C94,,62.5%,Min,-139.7,P3,-0.5766,P5,22.81,P3,-15.58,P6,-25.26,P5,-0.3644,P5,22.82,P3,1.022,P2
9293,C94,,68.8%,Max,99.12,P2,0.5317,P4,57.14,P24,-6.227,P2,14.35,P4,0.4078,P4,57.14,P24,15.56,P5
9293,C94,,68.8%,Min,-139.7,P3,-0.5766,P5,24.28,P3,-15.58,P6,-15.56,P5,-0.2897,P5,24.28,P3,0.08264,P34
9293,C94,,75.0%,Max,99.12,P2,0.5317,P4,59.12,P24,-6.227,P2,25.12,P4,0.3657,P2,59.12,P24,25.12,P4
9293,C94,,75.0%,Min,-139.7,P3,-0.5766,P5,25.75,P3,-15.58,P6,-5.346,P5,-0.2320,P3,25.75,P3,0.4272,P3
9293,C94,,75.0%,Max,103.2,P2,0.5904,P2,78.25,P24,-5.075,P2,31.82,P24,0.3261,P2,78.25,P24,31.82,P24
9293,C94,,75.0%,Min,-137.6,P3,-0.5717,P3,30.67,P3,-13.14,P27,0.5863,P5,-0.2650,P3,30.67,P3,0.6022,P5
9293,C94,,81.3%,Max,103.2,P2,0.5904,P2,80.23,P24,-5.075,P2,59.28,P24,0.3921,P2,80.23,P24,59.28,P24
9293,C94,,81.3%,Min,-137.6,P3,-0.5717,P3,32.13,P3,-13.14,P27,14.19,P5,-0.3374,P3,32.14,P3,14.20,P5
9293,C94,,87.5%,Max,103.2,P2,0.5904,P2,82.22,P24,-5.075,P2,87.43,P24,0.4580,P2,82.22,P24,87.43,P24
9293,C94,,87.5%,Min,-137.6,P3,-0.5717,P3,33.60,P3,-13.14,P27,28.31,P5,-0.4099,P3,33.61,P3,28.31,P5
9293,C94,,93.8%,Max,103.2,P2,0.5904,P2,84.20,P24,-5.075,P2,116.3,P24,0.5239,P2,84.20,P24,116.3,P24
9293,C94,,93.8%,Min,-137.6,P3,-0.5717,P3,35.07,P3,-13.14,P27,42.02,P3,-0.4823,P3,35.07,P3,42.02,P3
9293,C94,7133,100.0%,Max,103.2,P2,0.5904,P2,86.18,P24,-5.075,P2,145.8,P24,0.5898,P2,86.18,P24,145.8,P24
9293,C94,7133,100.0%,Min,-137.6,P3,-0.5717,P3,36.54,P3,-13.14,P27,55.34,P3,-0.5547,P3,36.54,P3,55.35,P3
9342,C94,6029,0.0%,Max,239.0,P79,15.18,P7,-207.2,P85,55.10,P8,1811.,P7,18.26,P7,625.7,P6,1811.,P7
9342,C94,6029,0.0%,Min,-248.9,P9,-6.618,P5,-625.5,P6,22.09,P77,89.87,P85,-5.634,P5,207.3,P85,89.99,P85
9342,C94,,3.6%,Max,239.0,P79,15.18,P7,-202.6,P85,55.10,P8,1574.,P7,13.39,P4,619.4,P6,1574.,P7
9342,C94,,3.6%,Min,-248.9,P9,-6.618,P5,-619.2,P6,22.09,P77,8.754,P85,-6.138,P5,202.6,P85,9.176,P85
9342,C94,,7.1%,Max,239.0,P79,15.18,P7,-197.9,P85,55.10,P8,1341.,P7,10.59,P4,613.1,P6,1341.,P7
9342,C94,,7.1%,Min,-248.9,P9,-6.618,P5,-612.9,P6,22.09,P77,-70.52,P85,-6.642,P5,198.0,P85,18.63,P3
9342,C94,,10.7%,Max,239.0,P79,15.18,P7,-193.3,P85,55.10,P8,1110.,P7,7.891,P2,606.8,P6,1110.,P7
9342,C94,,10.7%,Min,-248.9,P9,-6.618,P5,-606.6,P6,22.09,P77,-148.0,P85,-7.253,P3,193.3,P85,38.88,P5
9342,C94,,14.3%,Max,239.0,P79,15.18,P7,-188.6,P85,55.10,P8,881.0,P7,5.204,P2,600.5,P6,881.0,P7
9342,C94,,14.3%,Min,-248.9,P9,-6.618,P5,-600.4,P6,22.09,P77,-223.5,P85,-7.873,P3,188.7,P85,8.522,P65
9342,C94,,14.3%,Max,168.9,P79,3.989,P2,-154.0,P85,52.17,P8,841.6,P7,3.922,P2,502.7,P6,841.6,P7
9342,C94,,14.3%,Min,-174.6,P9,-3.123,P3,-502.7,P6,21.19,P77,-235.1,P85,-2.720,P3,154.0,P85,0.3976,P63
9342,C94,,17.9%,Max,168.9,P79,3.989,P2,-149.4,P85,52.17,P8,650.0,P7,3.594,P2,496.4,P6,650.0,P7
9342,C94,,17.9%,Min,-174.6,P9,-3.123,P3,-496.4,P6,21.19,P77,-295.2,P85,-2.735,P3,149.4,P85,5.957,P66
9342,C94,,21.4%,Max,168.9,P79,3.989,P2,-144.7,P85,52.17,P8,536.0,P79,3.267,P2,490.1,P6,536.0,P79
9342,C94,,21.4%,Min,-174.6,P9,-3.123,P3,-490.1,P6,21.19,P77,-353.4,P85,-2.751,P3,144.7,P85,40.34,P67
9342,C94,,25.0%,Max,168.9,P79,3.989,P2,-140.1,P85,52.17,P8,423.9,P79,2.940,P2,483.8,P6,477.9,P9
9342,C94,,25.0%,Min,-174.6,P9,-3.123,P3,-483.8,P6,21.19,P77,-477.9,P9,-2.766,P3,140.1,P85,7.320,P41
9342,C94,,28.6%,Max,168.9,P79,3.989,P2,-135.4,P85,52.17,P8,313.6,P79,2.613,P2,477.6,P6,612.4,P9
9342,C94,,28.6%,Min,-174.6,P9,-3.123,P3,-477.6,P6,21.19,P77,-612.4,P9,-2.782,P3,135.4,P85,7.100,P42
9342,C94,,28.6%,Max,128.7,P79,2.761,P2,-95.76,P85,41.04,P8,294.5,P79,2.648,P2,360.9,P6,633.1,P9
9342,C94,,28.6%,Min,-135.6,P9,-2.045,P3,-360.9,P6,17.10,P5,-633.1,P9,-1.657,P3,95.76,P85,4.036,P43
9342,C94,,32.1%,Max,128.7,P79,2.761,P2,-91.10,P85,41.04,P8,205.1,P79,2.511,P2,354.6,P6,726.5,P9
9342,C94,,32.1%,Min,-135.6,P9,-2.045,P3,-354.6,P6,17.10,P5,-726.5,P9,-1.803,P3,91.10,P85,12.87,P48
9342,C94,,35.7%,Max,128.7,P79,2.761,P2,-86.44,P85,41.04,P8,117.6,P79,2.375,P2,348.3,P6,817.3,P9
9342,C94,,35.7%,Min,-135.6,P9,-2.045,P3,-348.3,P6,17.10,P5,-817.3,P9,-1.950,P3,86.45,P85,4.108,P2
9342,C94,,39.3%,Max,128.7,P79,2.761,P2,-81.79,P85,41.04,P8,31.89,P79,2.238,P2,342.0,P6,905.7,P9
9342,C94,,39.3%,Min,-135.6,P9,-2.045,P3,-342.0,P6,17.10,P5,-905.7,P9,-2.097,P3,81.79,P85,9.848,P75
9342,C94,,42.9%,Max,128.7,P79,2.761,P2,-77.13,P85,41.04,P8,-51.95,P79,2.101,P2,335.7,P6,991.6,P9
9342,C94,,42.9%,Min,-135.6,P9,-2.045,P3,-335.7,P6,17.10,P5,-991.6,P9,-2.243,P3,77.13,P85,51.96,P79
9342,C94,,42.9%,Max,104.9,P79,2.582,P2,-44.51,P85,28.24,P8,-66.45,P79,2.615,P2,245.2,P7,1005.,P9
9342,C94,,42.9%,Min,-115.3,P9,-1.755,P3,-245.2,P7,11.97,P5,-1005.,P9,-1.637,P3,44.51,P85,66.47,P79
9342,C94,,46.4%,Max,104.9,P79,2.582,P2,-39.85,P85,28.24,P8,-133.3,P79,2.420,P2,238.9,P7,1056.,P9
9342,C94,,46.4%,Min,-115.3,P9,-1.755,P3,-238.9,P7,11.97,P5,-1056.,P9,-1.770,P3,39.86,P85,133.3,P79
9342,C94,,50.0%,Max,104.9,P79,2.582,P2,-35.20,P85,28.24,P8,-198.4,P79,2.226,P2,232.6,P7,1113.,P8
9342,C94,,50.0%,Min,-115.3,P9,-1.755,P3,-232.6,P7,11.97,P5,-1113.,P8,-1.903,P3,35.20,P85,198.4,P79
9342,C94,,53.6%,Max,104.9,P79,2.582,P2,-30.54,P85,28.24,P8,-261.6,P79,2.031,P2,226.4,P7,1174.,P8
9342,C94,,53.6%,Min,-115.3,P9,-1.755,P3,-226.3,P7,11.97,P5,-1174.,P8,-2.035,P3,30.54,P85,261.6,P79
9342,C94,,57.1%,Max,104.9,P79,2.582,P2,-25.88,P85,28.24,P8,-322.9,P79,1.836,P2,220.1,P7,1233.,P8
9342,C94,,57.1%,Min,-115.3,P9,-1.755,P3,-220.1,P7,11.97,P5,-1233.,P8,-2.168,P3,25.88,P85,322.9,P79
9342,C94,,57.1%,Max,89.45,P79,3.570,P2,12.56,P85,16.64,P30,-332.5,P79,3.753,P2,119.4,P7,1239.,P8
9342,C94,,57.1%,Min,-104.6,P9,-2.374,P3,-119.4,P7,7.358,P5,-1239.,P8,-2.592,P3,1.330,P91,332.5,P79
9342,C94,,60.7%,Max,89.45,P79,3.570,P2,17.22,P85,16.64,P30,-373.9,P79,3.268,P2,113.2,P7,1253.,P8
9342,C94,,60.7%,Min,-104.6,P9,-2.374,P3,-113.1,P7,7.358,P5,-1253.,P8,-2.581,P3,4.231,P91,373.9,P79
9342,C94,,64.3%,Max,89.45,P79,3.570,P2,21.88,P85,16.64,P30,-413.6,P79,2.784,P2,106.9,P7,1265.,P8
9342,C94,,64.3%,Min,-104.6,P9,-2.374,P3,-106.8,P7,7.358,P5,-1265.,P8,-2.570,P3,0.6457,P61,413.6,P79
9342,C94,,67.9%,Max,89.45,P79,3.570,P2,26.54,P85,16.64,P30,-451.3,P79,2.300,P2,100.6,P7,1273.,P8
9342,C94,,67.9%,Min,-104.6,P9,-2.374,P3,-100.6,P7,7.358,P5,-1273.,P8,-2.560,P3,0.7979,P65,451.3,P79
9342,C94,,71.4%,Max,89.45,P79,3.570,P2,31.20,P85,16.64,P30,-487.2,P79,1.816,P2,94.30,P7,1280.,P8
9342,C94,,71.4%,Min,-104.6,P9,-2.374,P3,-94.26,P7,7.358,P5,-1280.,P8,-2.549,P3,2.414,P62,487.3,P79
9342,C94,,71.4%,Max,75.91,P79,7.365,P2,90.61,P9,0.1571,P2,-492.7,P79,6.533,P2,90.62,P9,1278.,P8
9342,C94,,71.4%,Min,-97.55,P9,-5.176,P3,-54.70,P79,-3.218,P8,-1278.,P8,-4.794,P3,3.487,P39,492.7,P79
9342,C94,,75.0%,Max,75.91,P79,7.365,P2,96.90,P9,0.1571,P2,-512.4,P77,5.826,P2,96.91,P9,1246.,P8
9342,C94,,75.0%,Min,-97.55,P9,-5.176,P3,-50.04,P79,-3.218,P8,-1246.,P8,-4.954,P3,2.845,P42,512.4,P77
9342,C94,,78.6%,Max,75.91,P79,7.365,P2,103.2,P9,0.1571,P2,-520.6,P2,5.119,P2,103.2,P9,1212.,P8
9342,C94,,78.6%,Min,-97.55,P9,-5.176,P3,-45.38,P79,-3.218,P8,-1212.,P8,-5.114,P3,1.951,P42,520.6,P2
9342,C94,,82.1%,Max,75.91,P79,7.365,P2,109.5,P9,0.1571,P2,-516.2,P2,4.413,P2,109.5,P9,1178.,P31
9342,C94,,82.1%,Min,-97.55,P9,-5.176,P3,-40.72,P79,-3.218,P8,-1178.,P31,-5.274,P3,2.311,P43,516.2,P2
9342,C94,,85.7%,Max,75.91,P79,7.365,P2,115.8,P9,0.1571,P2,-509.9,P2,3.706,P2,115.8,P9,1156.,P31
9342,C94,,85.7%,Min,-97.55,P9,-5.176,P3,-36.06,P79,-3.218,P8,-1156.,P31,-5.433,P3,5.865,P49,509.9,P2
9342,C94,,85.7%,Max,61.45,P79,25.10,P2,221.2,P8,1.587,P2,-505.7,P2,14.17,P2,221.2,P8,1148.,P6
9342,C94,,85.7%,Min,-91.46,P9,-18.04,P3,11.88,P79,-2.851,P3,-1148.,P6,-10.40,P3,17.28,P79,505.9,P2
9342,C94,,89.3%,Max,61.45,P79,25.10,P2,227.5,P8,1.587,P2,-460.3,P85,15.20,P2,227.5,P8,1084.,P6
9342,C94,,89.3%,Min,-91.46,P9,-18.04,P3,16.54,P79,-2.851,P3,-1084.,P6,-14.22,P3,20.76,P79,460.3,P85
9342,C94,,92.9%,Max,61.45,P79,25.10,P2,233.8,P8,1.587,P2,-407.5,P85,16.22,P2,233.8,P8,1017.,P6
9342,C94,,92.9%,Min,-91.46,P9,-18.04,P3,21.20,P79,-2.851,P3,-1017.,P6,-18.03,P3,24.64,P79,407.5,P85
9342,C94,,96.4%,Max,61.45,P79,25.10,P2,240.1,P8,1.587,P2,-353.0,P85,17.24,P2,240.1,P8,946.9,P6
9342,C94,,96.4%,Min,-91.46,P9,-18.04,P3,25.86,P79,-2.851,P3,-946.8,P6,-21.85,P3,28.74,P79,353.0,P85
9342,C94,6078,100.0%,Max,61.45,P79,25.10,P2,246.4,P8,1.587,P2,-296.6,P85,18.27,P2,246.4,P8,874.8,P6
9342,C94,6078,100.0%,Min,-91.46,P9,-18.04,P3,30.52,P79,-2.851,P3,-874.7,P6,-25.66,P3,33.00,P79,296.6,P85
9343,C94,6030,0.0%,Max,5.501,P4,8.383,P2,-220.1,P79,-6.420,P2,47.57,P7,9.260,P2,505.2,P8,47.58,P7
9343,C94,6030,0.0%,Min,-4.438,P67,-8.985,P3,-505.2,P8,-27.75,P6,-3.402,P85,-9.873,P3,220.1,P79,0.1701,P87
9343,C94,,3.6%,Max,5.501,P4,8.383,P2,-215.4,P79,-6.420,P2,-47.09,P79,8.068,P2,498.9,P8,178.0,P8
9343,C94,,3.6%,Min,-4.438,P67,-8.985,P3,-498.9,P8,-27.75,P6,-178.0,P8,-8.443,P3,215.4,P79,47.09,P79
9343,C94,,7.1%,Max,5.501,P4,8.383,P2,-210.8,P79,-6.420,P2,-131.5,P79,6.875,P2,492.6,P8,374.3,P8
9343,C94,,7.1%,Min,-4.438,P67,-8.985,P3,-492.6,P8,-27.75,P6,-374.3,P8,-7.013,P3,210.8,P79,131.5,P79
9343,C94,,10.7%,Max,5.501,P4,8.383,P2,-206.1,P79,-6.420,P2,-214.0,P79,5.683,P2,486.3,P8,568.1,P8
9343,C94,,10.7%,Min,-4.438,P67,-8.985,P3,-486.3,P8,-27.75,P6,-568.1,P8,-5.583,P3,206.1,P79,214.0,P79
9343,C94,,14.3%,Max,5.501,P4,8.383,P2,-201.5,P79,-6.420,P2,-294.7,P79,4.491,P2,480.1,P8,759.4,P8
9343,C94,,14.3%,Min,-4.438,P67,-8.985,P3,-480.0,P8,-27.75,P6,-759.4,P8,-4.152,P3,201.5,P79,294.7,P79
9343,C94,,14.3%,Max,20.62,P76,3.602,P2,-173.1,P4,-7.280,P4,-306.2,P79,3.829,P2,392.0,P8,789.5,P8
9343,C94,,14.3%,Min,-21.65,P9,-3.844,P3,-392.0,P8,-27.03,P6,-789.5,P8,-3.703,P3,173.1,P4,306.2,P79
9343,C94,,17.9%,Max,20.62,P76,3.602,P2,-168.4,P4,-7.280,P4,-374.2,P79,3.557,P2,385.7,P8,943.4,P8
9343,C94,,17.9%,Min,-21.65,P9,-3.844,P3,-385.7,P8,-27.03,P6,-943.4,P8,-3.335,P3,168.4,P4,374.2,P79
9343,C94,,21.4%,Max,20.62,P76,3.602,P2,-163.7,P4,-7.280,P4,-440.4,P79,3.285,P2,379.4,P8,1095.,P8
9343,C94,,21.4%,Min,-21.65,P9,-3.844,P3,-379.4,P8,-27.03,P6,-1095.,P8,-2.967,P3,163.8,P4,440.4,P79
9343,C94,,25.0%,Max,20.62,P76,3.602,P2,-159.1,P4,-7.280,P4,-504.7,P79,3.013,P2,373.1,P8,1244.,P8
9343,C94,,25.0%,Min,-21.65,P9,-3.844,P3,-373.1,P8,-27.03,P6,-1244.,P8,-2.599,P3,159.1,P4,504.7,P79
9343,C94,,28.6%,Max,20.62,P76,3.602,P2,-154.4,P4,-7.280,P4,-567.2,P79,2.741,P2,366.8,P8,1390.,P8
9343,C94,,28.6%,Min,-21.65,P9,-3.844,P3,-366.8,P8,-27.03,P6,-1390.,P8,-2.231,P3,154.4,P4,567.2,P79
9343,C94,,28.6%,Max,46.26,P74,3.082,P2,-106.0,P4,-7.017,P4,-575.0,P79,3.041,P2,244.8,P8,1411.,P8
9343,C94,,28.6%,Min,-51.92,P9,-3.022,P3,-244.8,P8,-19.33,P31,-1411.,P8,-2.606,P3,106.0,P4,575.0,P79
9343,C94,,32.1%,Max,46.26,P74,3.082,P2,-101.3,P4,-7.017,P4,-617.6,P79,2.899,P2,238.5,P8,1506.,P8
9343,C94,,32.1%,Min,-51.92,P9,-3.022,P3,-238.5,P8,-19.33,P31,-1506.,P8,-2.488,P3,101.3,P4,617.6,P79
9343,C94,,35.7%,Max,46.26,P74,3.082,P2,-96.66,P4,-7.017,P4,-658.3,P79,2.757,P2,232.2,P8,1600.,P8
9343,C94,,35.7%,Min,-51.92,P9,-3.022,P3,-232.2,P8,-19.33,P31,-1600.,P8,-2.369,P3,96.69,P4,658.3,P79
9343,C94,,39.3%,Max,46.26,P74,3.082,P2,-92.01,P4,-7.017,P4,-697.2,P79,2.615,P2,225.9,P8,1690.,P8
9343,C94,,39.3%,Min,-51.92,P9,-3.022,P3,-225.9,P8,-19.33,P31,-1690.,P8,-2.251,P3,92.03,P4,697.2,P79
9343,C94,,42.9%,Max,46.26,P74,3.082,P2,-87.35,P4,-7.017,P4,-734.3,P79,2.473,P2,219.6,P8,1779.,P8
9343,C94,,42.9%,Min,-51.92,P9,-3.022,P3,-219.6,P8,-19.33,P31,-1779.,P8,-2.133,P3,87.38,P4,734.3,P79
9343,C94,,42.9%,Max,64.93,P78,3.110,P2,-52.95,P4,-6.712,P78,-738.7,P79,2.704,P2,119.2,P8,1790.,P8
9343,C94,,42.9%,Min,-69.91,P9,-2.629,P3,-119.2,P8,-16.70,P8,-1790.,P8,-2.000,P3,53.01,P4,738.7,P79
9343,C94,,46.4%,Max,64.93,P78,3.110,P2,-48.29,P4,-6.712,P78,-761.1,P79,2.651,P2,112.9,P8,1836.,P8
9343,C94,,46.4%,Min,-69.91,P9,-2.629,P3,-112.9,P8,-16.70,P8,-1836.,P8,-2.137,P3,48.35,P4,761.1,P79
9343,C94,,50.0%,Max,64.93,P78,3.110,P2,-43.64,P4,-6.712,P78,-781.5,P79,2.598,P2,106.6,P8,1879.,P8
9343,C94,,50.0%,Min,-69.91,P9,-2.629,P3,-106.6,P8,-16.70,P8,-1879.,P8,-2.274,P3,43.70,P4,781.5,P79
9343,C94,,53.6%,Max,64.93,P78,3.110,P2,-38.98,P4,-6.712,P78,-800.1,P79,2.544,P2,100.3,P8,1920.,P8
9343,C94,,53.6%,Min,-69.91,P9,-2.629,P3,-100.3,P8,-16.70,P8,-1920.,P8,-2.411,P3,39.05,P4,800.1,P79
9343,C94,,57.1%,Max,64.93,P78,3.110,P2,-34.32,P4,-6.712,P78,-816.9,P79,2.491,P2,94.03,P8,1959.,P8
9343,C94,,57.1%,Min,-69.91,P9,-2.629,P3,-94.03,P8,-16.70,P8,-1959.,P8,-2.548,P3,34.40,P4,816.9,P79
9343,C94,,57.1%,Max,72.56,P78,3.446,P2,18.43,P6,-2.412,P78,-817.6,P79,2.594,P2,18.45,P6,1961.,P8
9343,C94,,57.1%,Min,-73.95,P9,-2.529,P3,-1.638,P69,-12.35,P8,-1961.,P8,-1.687,P3,0.1824,P54,817.6,P79
9343,C94,,60.7%,Max,72.56,P78,3.446,P2,24.72,P6,-2.412,P78,-816.4,P79,2.627,P2,24.74,P6,1953.,P8
9343,C94,,60.7%,Min,-73.95,P9,-2.529,P3,3.020,P69,-12.35,P8,-1953.,P8,-2.084,P3,3.034,P69,816.4,P79
9343,C94,,64.3%,Max,72.56,P78,3.446,P2,31.01,P6,-2.412,P78,-813.4,P79,2.660,P2,31.02,P6,1942.,P8
9343,C94,,64.3%,Min,-73.95,P9,-2.529,P3,7.679,P69,-12.35,P8,-1942.,P8,-2.480,P3,7.684,P69,813.4,P79
9343,C94,,67.9%,Max,72.56,P78,3.446,P2,37.30,P6,-2.412,P78,-808.5,P79,2.693,P2,37.31,P6,1929.,P8
9343,C94,,67.9%,Min,-73.95,P9,-2.529,P3,12.34,P69,-12.35,P8,-1929.,P8,-2.876,P3,12.34,P69,808.5,P79
9343,C94,,71.4%,Max,72.56,P78,3.446,P2,43.59,P6,-2.412,P78,-801.7,P79,2.727,P2,43.60,P6,1913.,P8
9343,C94,,71.4%,Min,-73.95,P9,-2.529,P3,17.00,P69,-12.35,P8,-1913.,P8,-3.273,P3,17.00,P69,801.7,P79
9343,C94,,71.4%,Max,73.43,P78,4.813,P2,153.3,P8,-0.04230,P78,-798.6,P79,3.096,P2,153.3,P8,1906.,P8
9343,C94,,71.4%,Min,-69.50,P93,-3.054,P3,57.43,P57,-10.58,P9,-1906.,P8,-1.839,P3,57.43,P57,798.6,P79
9343,C94,,75.0%,Max,73.43,P78,4.813,P2,159.6,P8,-0.04230,P78,-774.8,P79,3.194,P2,159.6,P8,1844.,P8
9343,C94,,75.0%,Min,-69.50,P93,-3.054,P3,62.09,P57,-10.58,P9,-1844.,P8,-2.633,P3,62.09,P57,774.8,P79
9343,C94,,78.6%,Max,73.43,P78,4.813,P2,165.9,P8,-0.04230,P78,-749.1,P79,3.292,P2,165.9,P8,1780.,P8
9343,C94,,78.6%,Min,-69.50,P93,-3.054,P3,66.75,P57,-10.58,P9,-1780.,P8,-3.427,P3,66.75,P57,749.1,P79
9343,C94,,82.1%,Max,73.43,P78,4.813,P2,172.2,P8,-0.04230,P78,-721.5,P79,3.390,P2,172.2,P8,1713.,P8
9343,C94,,82.1%,Min,-69.50,P93,-3.054,P3,71.41,P57,-10.58,P9,-1713.,P8,-4.222,P3,71.41,P57,721.5,P79
9343,C94,,85.7%,Max,73.43,P78,4.813,P2,178.5,P8,-0.04230,P78,-692.1,P79,3.488,P2,178.5,P8,1644.,P8
9343,C94,,85.7%,Min,-69.50,P93,-3.054,P3,76.07,P57,-10.58,P9,-1644.,P8,-5.016,P3,76.07,P57,692.1,P79
9343,C94,,85.7%,Max,72.26,P79,14.29,P2,281.9,P8,2.599,P2,-684.9,P79,6.999,P2,282.0,P8,1627.,P8
9343,C94,,85.7%,Min,-64.68,P93,-8.373,P3,109.5,P5,-7.158,P3,-1627.,P8,-4.018,P3,109.8,P5,684.9,P79
9343,C94,,89.3%,Max,72.26,P79,14.29,P2,288.2,P8,2.599,P2,-638.2,P79,7.642,P2,288.2,P8,1514.,P8
9343,C94,,89.3%,Min,-64.68,P93,-8.373,P3,114.2,P5,-7.158,P3,-1514.,P8,-7.002,P3,114.5,P5,638.2,P79
9343,C94,,92.9%,Max,72.26,P79,14.29,P2,294.5,P8,2.599,P2,-589.6,P79,8.284,P2,294.5,P8,1399.,P8
9343,C94,,92.9%,Min,-64.68,P93,-8.373,P3,118.9,P5,-7.158,P3,-1399.,P8,-9.986,P3,119.1,P5,589.6,P79
9343,C94,,96.4%,Max,72.26,P79,14.29,P2,300.8,P8,2.599,P2,-539.1,P79,8.927,P2,300.8,P8,1281.,P8
9343,C94,,96.4%,Min,-64.68,P93,-8.373,P3,123.5,P5,-7.158,P3,-1281.,P8,-12.97,P3,123.8,P5,539.1,P79
9343,C94,6079,100.0%,Max,72.26,P79,14.29,P2,307.1,P8,2.599,P2,-486.8,P79,9.569,P2,307.1,P8,1160.,P8
9343,C94,6079,100.0%,Min,-64.68,P93,-8.373,P3,128.2,P5,-7.158,P3,-1160.,P8,-15.95,P3,128.4,P5,486.8,P79
9344,C94,7608,0.0%,Max,107.7,P2,8.418,P2,128.5,P6,32.38,P8,-432.5,P2,9.003,P2,128.5,P6,1133.,P6
9344,C94,7608,0.0%,Min,-163.4,P3,-3.400,P3,32.11,P3,13.59,P79,-1133.,P6,-4.461,P3,32.29,P3,432.6,P2
9344,C94,,6.2%,Max,107.7,P2,8.418,P2,133.7,P6,32.38,P8,-415.9,P2,7.629,P2,133.8,P6,1078.,P6
9344,C94,,6.2%,Min,-163.4,P3,-3.400,P3,36.03,P3,13.59,P79,-1078.,P6,-5.176,P3,36.19,P3,416.0,P2
9344,C94,,12.5%,Max,107.7,P2,8.418,P2,139.0,P6,32.38,P8,-394.1,P4,6.254,P2,139.1,P6,1021.,P6
9344,C94,,12.5%,Min,-163.4,P3,-3.400,P3,39.95,P3,13.59,P79,-1021.,P6,-5.892,P3,40.10,P3,394.1,P4
9344,C94,,18.7%,Max,107.7,P2,8.418,P2,144.3,P6,32.38,P8,-369.4,P85,4.880,P2,144.4,P6,962.5,P6
9344,C94,,18.7%,Min,-163.4,P3,-3.400,P3,43.87,P3,13.59,P79,-962.5,P6,-6.607,P3,44.00,P3,369.4,P85
9344,C94,,25.0%,Max,107.7,P2,8.418,P2,149.6,P6,32.38,P8,-338.3,P85,3.505,P2,149.7,P6,901.3,P6
9344,C94,,25.0%,Min,-163.4,P3,-3.400,P3,47.79,P3,13.59,P79,-901.2,P6,-7.322,P3,47.91,P3,338.3,P85
9344,C94,,25.0%,Max,103.1,P2,5.786,P2,208.6,P6,31.60,P8,-327.6,P85,8.510,P2,208.6,P6,878.0,P6
9344,C94,,25.0%,Min,-186.9,P3,-3.879,P3,71.80,P3,13.40,P79,-878.0,P6,-7.388,P3,71.90,P3,327.6,P85
9344,C94,,31.2%,Max,103.1,P2,5.786,P2,213.9,P6,31.60,P8,-287.2,P85,6.493,P2,213.9,P6,790.0,P6
9344,C94,,31.2%,Min,-186.9,P3,-3.879,P3,75.72,P3,13.40,P79,-790.0,P6,-6.166,P3,75.82,P3,287.2,P85
9344,C94,,37.5%,Max,103.1,P2,5.786,P2,219.2,P6,31.60,P8,-245.1,P85,4.477,P2,219.2,P6,699.9,P6
9344,C94,,37.5%,Min,-186.9,P3,-3.879,P3,79.64,P3,13.40,P79,-699.9,P6,-4.944,P3,79.74,P3,245.1,P85
9344,C94,,43.7%,Max,103.1,P2,5.786,P2,224.5,P6,31.60,P8,-201.4,P85,2.460,P2,224.5,P6,607.5,P6
9344,C94,,43.7%,Min,-186.9,P3,-3.879,P3,83.56,P3,13.40,P79,-607.5,P6,-3.722,P3,83.65,P3,201.4,P85
9344,C94,,50.0%,Max,103.1,P2,5.786,P2,229.8,P6,31.60,P8,-156.1,P85,0.9978,P69,229.8,P6,512.9,P6
9344,C94,,50.0%,Min,-186.9,P3,-3.879,P3,87.48,P3,13.40,P79,-512.9,P6,-2.530,P5,87.57,P3,156.1,P85
9344,C94,,50.0%,Max,115.2,P2,15.62,P2,402.7,P24,35.32,P8,-135.9,P85,15.09,P2,402.7,P24,468.1,P6
9344,C94,,50.0%,Min,-277.2,P3,-12.30,P3,162.3,P3,14.75,P79,-468.1,P6,-11.95,P3,162.8,P3,136.0,P85
9344,C94,,56.3%,Max,115.2,P2,15.62,P2,407.9,P24,35.32,P8,-50.67,P4,13.52,P2,408.0,P24,299.7,P31
9344,C94,,56.3%,Min,-277.2,P3,-12.30,P3,166.2,P3,14.75,P79,-299.6,P31,-11.76,P3,166.7,P3,51.51,P4
9344,C94,,62.5%,Max,115.2,P2,15.62,P2,413.2,P24,35.32,P8,45.26,P4,11.94,P2,413.3,P24,144.5,P19
9344,C94,,62.5%,Min,-277.2,P3,-12.30,P3,170.2,P3,14.75,P79,-144.5,P19,-11.57,P3,170.6,P3,1.070,P60
9344,C94,,68.8%,Max,115.2,P2,15.62,P2,418.5,P24,35.32,P8,142.8,P4,10.37,P2,418.5,P24,143.0,P4
9344,C94,,68.8%,Min,-277.2,P3,-12.30,P3,174.1,P3,14.75,P79,-52.17,P5,-11.38,P3,174.5,P3,4.106,P73
9344,C94,,75.0%,Max,115.2,P2,15.62,P2,423.8,P24,35.32,P8,280.4,P9,8.800,P2,423.8,P24,280.4,P9
9344,C94,,75.0%,Min,-277.2,P3,-12.30,P3,178.0,P3,14.75,P79,28.86,P55,-11.18,P3,178.4,P3,29.00,P55
9344,C94,,75.0%,Max,62.03,P2,39.60,P2,415.7,P6,24.09,P8,349.0,P8,22.33,P2,415.8,P6,349.3,P8
9344,C94,,75.0%,Min,-521.3,P3,-40.66,P3,177.2,P3,10.15,P5,60.94,P55,-31.01,P3,181.8,P3,61.58,P55
9344,C94,,81.3%,Max,62.03,P2,39.60,P2,421.0,P6,24.09,P8,520.5,P8,25.95,P2,421.1,P6,520.6,P8
9344,C94,,81.3%,Min,-521.3,P3,-40.66,P3,181.2,P3,10.15,P5,140.4,P55,-34.18,P3,185.7,P3,140.4,P55
9344,C94,,87.5%,Max,62.03,P2,39.60,P2,426.3,P6,24.09,P8,694.2,P8,29.56,P2,426.4,P6,694.2,P8
9344,C94,,87.5%,Min,-521.3,P3,-40.66,P3,185.1,P3,10.15,P5,221.6,P55,-37.36,P3,189.5,P3,221.7,P55
9344,C94,,93.8%,Max,62.03,P2,39.60,P2,431.6,P6,24.09,P8,870.1,P8,33.18,P2,431.7,P6,870.1,P8
9344,C94,,93.8%,Min,-521.3,P3,-40.66,P3,189.0,P3,10.15,P5,304.3,P55,-40.54,P3,193.3,P3,304.8,P55
9344,C94,7609,100.0%,Max,62.03,P2,39.60,P2,436.9,P6,24.09,P8,1048.,P8,36.80,P2,437.0,P6,1048.,P8
9344,C94,7609,100.0%,Min,-521.3,P3,-40.66,P3,192.9,P3,10.15,P5,388.7,P55,-43.71,P3,197.2,P3,389.5,P55
9345,C94,6031,0.0%,Max,474.9,P78,109.7,P78,-192.4,P85,-23.61,P2,1869.,P7,127.8,P78,646.5,P6,1872.,P7
9345,C94,6031,0.0%,Min,-485.0,P9,-91.52,P3,-644.4,P6,-59.30,P8,-106.3,P85,-107.7,P3,211.5,P85,87.77,P82
9345,C94,,3.6%,Max,474.9,P78,109.7,P78,-187.8,P85,-23.61,P2,1623.,P7,86.25,P2,640.2,P6,1625.,P7
9345,C94,,3.6%,Min,-485.0,P9,-91.52,P3,-638.1,P6,-59.30,P8,-181.5,P85,-89.03,P3,207.2,P85,57.08,P90
9345,C94,,7.1%,Max,474.9,P78,109.7,P78,-183.1,P85,-23.61,P2,1381.,P7,69.98,P2,634.0,P6,1381.,P7
9345,C94,,7.1%,Min,-485.0,P9,-91.52,P3,-631.8,P6,-59.30,P8,-255.0,P85,-70.40,P3,203.0,P85,17.87,P61
9345,C94,,10.7%,Max,474.9,P78,109.7,P78,-178.4,P85,-23.61,P2,1140.,P7,53.71,P2,627.7,P6,1140.,P7
9345,C94,,10.7%,Min,-485.0,P9,-91.52,P3,-625.5,P6,-59.30,P8,-326.5,P85,-51.78,P3,198.8,P85,16.20,P64
9345,C94,,14.3%,Max,474.9,P78,109.7,P78,-173.8,P85,-23.61,P2,909.8,P78,39.65,P9,621.4,P6,911.0,P78
9345,C94,,14.3%,Min,-485.0,P9,-91.52,P3,-619.3,P6,-59.30,P8,-396.2,P85,-45.88,P78,194.7,P85,12.94,P58
9345,C94,,14.3%,Max,346.8,P78,6.694,P2,-142.6,P85,-20.51,P2,883.1,P78,6.996,P2,524.7,P6,883.1,P78
9345,C94,,14.3%,Min,-358.5,P9,-6.700,P3,-524.7,P6,-52.16,P8,-407.0,P85,-6.237,P3,142.6,P85,2.098,P8
9345,C94,,17.9%,Max,346.8,P78,6.694,P2,-137.9,P85,-20.51,P2,756.9,P78,6.399,P2,518.4,P6,756.9,P78
9345,C94,,17.9%,Min,-358.5,P9,-6.700,P3,-518.4,P6,-52.16,P8,-462.5,P85,-5.638,P3,138.0,P85,25.04,P67
9345,C94,,21.4%,Max,346.8,P78,6.694,P2,-133.2,P85,-20.51,P2,632.6,P78,5.803,P2,512.1,P6,632.6,P78
9345,C94,,21.4%,Min,-358.5,P9,-6.700,P3,-512.1,P6,-52.16,P8,-535.3,P9,-5.039,P3,133.3,P85,0.6367,P36
9345,C94,,25.0%,Max,346.8,P78,6.694,P2,-128.6,P85,-20.51,P2,510.1,P78,5.206,P2,505.8,P6,671.0,P9
9345,C94,,25.0%,Min,-358.5,P9,-6.700,P3,-505.8,P6,-52.16,P8,-671.0,P9,-4.440,P3,128.7,P85,11.72,P14
9345,C94,,28.6%,Max,346.8,P78,6.694,P2,-123.9,P85,-20.51,P2,389.5,P78,4.609,P2,499.5,P6,804.2,P9
9345,C94,,28.6%,Min,-358.5,P9,-6.700,P3,-499.5,P6,-52.16,P8,-804.2,P9,-4.398,P78,124.0,P85,12.38,P38
9345,C94,,28.6%,Max,273.0,P78,4.470,P2,-82.90,P85,-16.91,P2,368.7,P78,4.401,P2,379.2,P7,823.3,P9
9345,C94,,28.6%,Min,-285.8,P9,-3.866,P3,-379.2,P7,-42.50,P8,-823.3,P9,-3.346,P3,82.90,P85,27.47,P38
9345,C94,,32.1%,Max,273.0,P78,4.470,P2,-78.24,P85,-16.91,P2,269.4,P78,4.052,P2,372.9,P7,914.0,P9
9345,C94,,32.1%,Min,-285.8,P9,-3.866,P3,-372.9,P7,-42.50,P8,-914.0,P9,-3.236,P3,78.24,P85,0.9437,P48
9345,C94,,35.7%,Max,273.0,P78,4.470,P2,-73.58,P85,-16.91,P2,172.0,P78,3.703,P2,366.6,P7,1002.,P9
9345,C94,,35.7%,Min,-285.8,P9,-3.866,P3,-366.6,P7,-42.50,P8,-1002.,P9,-3.126,P3,73.58,P85,7.314,P4
9345,C94,,39.3%,Max,273.0,P78,4.470,P2,-68.93,P85,-16.91,P2,76.48,P78,3.353,P2,360.3,P7,1088.,P9
9345,C94,,39.3%,Min,-285.8,P9,-3.866,P3,-360.3,P7,-42.50,P8,-1088.,P9,-3.015,P3,68.93,P85,7.328,P76
9345,C94,,42.9%,Max,273.0,P78,4.470,P2,-64.27,P85,-16.91,P2,-17.24,P78,3.004,P2,354.0,P7,1171.,P9
9345,C94,,42.9%,Min,-285.8,P9,-3.866,P3,-354.0,P7,-42.50,P8,-1171.,P9,-2.905,P3,64.27,P85,17.27,P78
9345,C94,,42.9%,Max,226.3,P78,4.602,P2,-36.07,P85,-10.23,P2,-33.52,P78,3.750,P2,269.6,P7,1184.,P9
9345,C94,,42.9%,Min,-242.2,P9,-3.608,P3,-269.6,P7,-24.54,P8,-1184.,P9,-2.615,P3,36.10,P85,33.53,P78
9345,C94,,46.4%,Max,226.3,P78,4.602,P2,-31.42,P85,-10.23,P2,-109.6,P79,3.645,P2,263.4,P7,1235.,P9
9345,C94,,46.4%,Min,-242.2,P9,-3.608,P3,-263.4,P7,-24.54,P8,-1235.,P9,-2.903,P3,31.45,P85,109.6,P79
9345,C94,,50.0%,Max,226.3,P78,4.602,P2,-26.76,P85,-10.23,P2,-183.9,P79,3.539,P2,257.1,P7,1283.,P9
9345,C94,,50.0%,Min,-242.2,P9,-3.608,P3,-257.1,P7,-24.54,P8,-1283.,P9,-3.192,P3,26.79,P85,183.9,P79
9345,C94,,53.6%,Max,226.3,P78,4.602,P2,-22.10,P85,-10.23,P2,-256.3,P79,3.434,P2,250.8,P7,1345.,P8
9345,C94,,53.6%,Min,-242.2,P9,-3.608,P3,-250.8,P7,-24.54,P8,-1345.,P8,-3.480,P3,22.14,P85,256.3,P79
9345,C94,,57.1%,Max,226.3,P78,4.602,P2,-17.44,P85,-10.23,P2,-326.8,P79,3.329,P2,244.5,P7,1407.,P8
9345,C94,,57.1%,Min,-242.2,P9,-3.608,P3,-244.5,P7,-24.54,P8,-1407.,P8,-3.768,P3,17.49,P85,326.8,P79
9345,C94,,57.1%,Max,194.3,P78,5.329,P2,21.78,P2,-7.546,P4,-337.6,P79,3.886,P2,143.3,P7,1411.,P8
9345,C94,,57.1%,Min,-214.1,P9,-3.817,P3,-143.3,P7,-17.16,P31,-1411.,P8,-2.345,P3,0.9932,P91,337.6,P79
9345,C94,,60.7%,Max,194.3,P78,5.329,P2,26.43,P2,-7.546,P4,-388.0,P79,3.909,P2,137.0,P7,1428.,P8
9345,C94,,60.7%,Min,-214.1,P9,-3.817,P3,-137.0,P7,-17.16,P31,-1428.,P8,-2.966,P3,3.675,P61,388.0,P79
9345,C94,,64.3%,Max,194.3,P78,5.329,P2,31.09,P2,-7.546,P4,-436.6,P79,3.932,P2,130.7,P7,1442.,P8
9345,C94,,64.3%,Min,-214.1,P9,-3.817,P3,-130.7,P7,-17.16,P31,-1442.,P8,-3.587,P3,2.044,P60,436.6,P79
9345,C94,,67.9%,Max,194.3,P78,5.329,P2,35.75,P2,-7.546,P4,-483.4,P79,3.954,P2,124.4,P7,1454.,P8
9345,C94,,67.9%,Min,-214.1,P9,-3.817,P3,-124.4,P7,-17.16,P31,-1454.,P8,-4.209,P3,1.908,P64,483.4,P79
9345,C94,,71.4%,Max,194.3,P78,5.329,P2,40.41,P2,-7.546,P4,-528.3,P79,3.977,P2,118.2,P7,1463.,P8
9345,C94,,71.4%,Min,-214.1,P9,-3.817,P3,-118.1,P7,-17.16,P31,-1463.,P8,-4.830,P3,4.459,P64,528.3,P79
9345,C94,,71.4%,Max,170.6,P78,7.599,P2,113.7,P9,-4.324,P2,-535.5,P79,4.373,P2,113.8,P9,1462.,P8
9345,C94,,71.4%,Min,-194.0,P9,-4.805,P3,-68.40,P78,-11.64,P31,-1462.,P8,-2.218,P3,2.885,P35,535.5,P79
9345,C94,,75.0%,Max,170.6,P78,7.599,P2,120.0,P9,-4.324,P2,-561.3,P79,4.702,P2,120.0,P9,1423.,P8
9345,C94,,75.0%,Min,-194.0,P9,-4.805,P3,-63.74,P78,-11.64,P31,-1423.,P8,-3.653,P3,0.5242,P44,561.3,P79
9345,C94,,78.6%,Max,170.6,P78,7.599,P2,126.3,P9,-4.324,P2,-585.4,P79,5.031,P2,126.3,P9,1381.,P8
9345,C94,,78.6%,Min,-194.0,P9,-4.805,P3,-59.08,P78,-11.64,P31,-1381.,P8,-5.088,P3,0.5461,P38,585.4,P79
9345,C94,,82.1%,Max,170.6,P78,7.599,P2,132.6,P9,-4.324,P2,-585.3,P4,5.360,P2,132.6,P9,1337.,P8
9345,C94,,82.1%,Min,-194.0,P9,-4.805,P3,-54.43,P78,-11.64,P31,-1337.,P8,-6.523,P3,2.909,P43,585.3,P4
9345,C94,,85.7%,Max,170.6,P78,7.599,P2,138.8,P9,-4.324,P2,-573.2,P4,5.689,P2,138.9,P9,1310.,P6
9345,C94,,85.7%,Min,-194.0,P9,-4.805,P3,-49.77,P78,-11.64,P31,-1310.,P6,-7.958,P3,1.307,P42,573.2,P4
9345,C94,,85.7%,Max,150.8,P78,21.87,P2,214.9,P9,1.969,P2,-567.3,P4,9.613,P2,215.3,P9,1304.,P6
9345,C94,,85.7%,Min,-175.9,P9,-12.75,P3,-12.15,P78,-3.364,P3,-1304.,P6,-5.048,P3,2.694,P76,567.3,P4
9345,C94,,89.3%,Max,150.8,P78,21.87,P2,221.2,P9,1.969,P2,-518.5,P4,11.06,P2,221.5,P9,1250.,P6
9345,C94,,89.3%,Min,-175.9,P9,-12.75,P3,-7.494,P78,-3.364,P3,-1250.,P6,-10.10,P3,1.452,P70,518.6,P4
9345,C94,,92.9%,Max,150.8,P78,21.87,P2,227.5,P9,1.969,P2,-467.8,P4,12.50,P2,227.8,P9,1193.,P6
9345,C94,,92.9%,Min,-175.9,P9,-12.75,P3,-2.836,P78,-3.364,P3,-1193.,P6,-15.16,P3,2.707,P74,467.9,P4
9345,C94,,96.4%,Max,150.8,P78,21.87,P2,233.8,P9,1.969,P2,-415.1,P2,13.94,P2,234.1,P9,1133.,P6
9345,C94,,96.4%,Min,-175.9,P9,-12.75,P3,1.823,P78,-3.364,P3,-1133.,P6,-20.21,P3,5.063,P78,415.3,P2
9345,C94,7608,100.0%,Max,150.8,P78,21.87,P2,240.1,P9,1.969,P2,-358.2,P2,15.38,P2,240.4,P9,1071.,P6
9345,C94,7608,100.0%,Min,-175.9,P9,-12.75,P3,6.482,P78,-3.364,P3,-1071.,P6,-25.26,P3,8.020,P78,358.5,P2
9516,C94,4792,0.0%,Max,230.6,P2,5.867,P2,5.569,P2,32.54,P9,272.8,P13,6.960,P2,177.8,P3,272.8,P13
9516,C94,4792,0.0%,Min,-485.8,P3,-1.767,P3,-177.8,P3,-6.005,P79,-7.106,P67,-3.025,P3,8.089,P2,1.853,P43
9516,C94,,8.3%,Max,230.6,P2,5.867,P2,10.54,P2,32.54,P9,207.2,P2,5.618,P2,172.8,P3,207.3,P2
9516,C94,,8.3%,Min,-485.8,P3,-1.767,P3,-172.8,P3,-6.005,P79,-13.71,P67,-3.413,P3,10.97,P4,6.052,P3
9516,C94,,16.7%,Max,230.6,P2,5.867,P2,15.50,P2,32.54,P9,148.5,P2,4.275,P2,167.9,P3,148.5,P2
9516,C94,,16.7%,Min,-485.8,P3,-1.767,P3,-167.9,P3,-6.005,P79,-26.59,P55,-3.800,P3,7.221,P4,3.333,P50
9516,C94,,25.0%,Max,230.6,P2,5.867,P2,20.47,P2,32.54,P9,91.84,P2,2.932,P2,162.9,P3,91.89,P2
9516,C94,,25.0%,Min,-485.8,P3,-1.767,P3,-162.9,P3,-6.005,P79,-42.14,P55,-4.188,P3,3.235,P67,0.5372,P39
9516,C94,,33.3%,Max,230.6,P2,5.867,P2,25.44,P2,32.54,P9,43.09,P85,1.810,P4,157.9,P3,55.62,P55
9516,C94,,33.3%,Min,-485.8,P3,-1.767,P3,-157.9,P3,-6.005,P79,-55.59,P55,-4.796,P5,1.142,P66,1.010,P53
9516,C94,,33.3%,Max,273.2,P2,2.648,P2,53.83,P2,15.84,P2,40.43,P85,3.035,P2,127.5,P3,56.46,P55
9516,C94,,33.3%,Min,-520.1,P3,-2.043,P3,-127.5,P3,-17.32,P79,-56.45,P55,-4.054,P3,0.9004,P83,0.09082,P68
9516,C94,,41.7%,Max,273.2,P2,2.648,P2,58.80,P2,15.84,P2,60.33,P2,3.081,P2,122.5,P3,79.71,P3
9516,C94,,41.7%,Min,-520.1,P3,-2.043,P3,-122.5,P3,-17.32,P79,-79.60,P3,-4.354,P3,0.6721,P69,1.195,P58
9516,C94,,50.0%,Max,273.2,P2,2.648,P2,63.77,P2,15.84,P2,85.13,P2,3.126,P2,117.6,P3,129.3,P3
9516,C94,,50.0%,Min,-520.1,P3,-2.043,P3,-117.5,P3,-17.32,P79,-129.2,P3,-4.655,P3,1.961,P39,2.091,P8
9516,C94,,58.3%,Max,273.2,P2,2.648,P2,68.73,P2,15.84,P2,112.0,P2,3.171,P2,112.6,P3,176.8,P3
9516,C94,,58.3%,Min,-520.1,P3,-2.043,P3,-112.6,P3,-17.32,P79,-176.7,P3,-4.956,P3,0.5115,P10,8.204,P8
9516,C94,,66.7%,Max,273.2,P2,2.648,P2,73.70,P2,15.84,P2,141.0,P2,3.217,P2,107.6,P3,222.2,P3
9516,C94,,66.7%,Min,-520.1,P3,-2.043,P3,-107.6,P3,-17.32,P79,-222.1,P3,-5.257,P3,0.9737,P50,3.273,P43
9516,C94,,66.7%,Max,309.3,P2,18.28,P79,102.5,P2,4.183,P84,141.1,P2,16.69,P79,103.8,P2,232.0,P3
9516,C94,,66.7%,Min,-555.4,P3,-20.03,P3,-80.42,P3,-31.74,P7,-231.1,P3,-20.23,P3,4.267,P17,9.329,P42
9516,C94,,75.0%,Max,309.3,P2,18.28,P79,107.5,P2,4.183,P84,185.4,P2,13.51,P2,108.7,P2,264.7,P3
9516,C94,,75.0%,Min,-555.4,P3,-20.03,P3,-75.45,P3,-31.74,P7,-264.0,P3,-19.07,P3,7.831,P17,0.8137,P20
9516,C94,,83.3%,Max,309.3,P2,18.28,P79,112.4,P2,4.183,P84,231.7,P2,13.95,P2,113.6,P2,295.2,P3
9516,C94,,83.3%,Min,-555.4,P3,-20.03,P3,-70.49,P3,-31.74,P7,-294.7,P3,-17.92,P3,9.088,P40,1.772,P21
9516,C94,,91.7%,Max,309.3,P2,18.28,P79,117.4,P2,4.183,P84,280.1,P2,14.40,P2,118.5,P2,323.8,P3
9516,C94,,91.7%,Min,-555.4,P3,-20.03,P3,-65.52,P3,-31.74,P7,-323.3,P3,-16.76,P3,4.382,P40,4.544,P1
9516,C94,7562,100.0%,Max,309.3,P2,18.28,P79,122.4,P2,4.183,P84,330.7,P2,14.85,P2,123.4,P2,350.2,P3
9516,C94,7562,100.0%,Min,-555.4,P3,-20.03,P3,-60.55,P3,-31.74,P7,-349.9,P3,-15.61,P3,2.271,P40,8.375,P56
9517,C94,5042,0.0%,Max,1.443,P89,3.230,P2,-26.45,P2,1.508,P24,148.9,P2,2.632,P2,214.5,P24,148.9,P2
9517,C94,5042,0.0%,Min,-13.71,P19,-0.5308,P46,-214.5,P24,0.09815,P75,-67.68,P3,-0.4012,P46,26.65,P2,0.8338,P92
9517,C94,,6.5%,Max,1.443,P89,3.230,P2,-24.41,P2,1.508,P24,87.31,P2,2.007,P2,211.8,P24,87.33,P2
9517,C94,,6.5%,Min,-13.71,P19,-0.5308,P46,-211.8,P24,0.09815,P75,-81.83,P3,-0.5949,P3,24.62,P2,0.7753,P78
9517,C94,,13.0%,Max,1.443,P89,3.230,P2,-22.36,P2,1.508,P24,26.43,P2,1.382,P2,209.0,P24,95.25,P3
9517,C94,,13.0%,Min,-13.71,P19,-0.5308,P46,-209.0,P24,0.09815,P75,-95.24,P3,-1.081,P3,22.60,P2,1.860,P48
9517,C94,,19.5%,Max,1.443,P89,3.230,P2,-20.32,P2,1.508,P24,-33.70,P2,0.7611,P4,206.2,P24,144.1,P33
9517,C94,,19.5%,Min,-13.71,P19,-0.5308,P46,-206.2,P24,0.09815,P75,-144.1,P33,-1.571,P5,20.57,P2,33.71,P2
9517,C94,,26.0%,Max,1.443,P89,3.230,P2,-18.27,P2,1.508,P24,-81.76,P90,0.3677,P46,203.5,P24,208.8,P6
9517,C94,,26.0%,Min,-13.71,P19,-0.5308,P46,-203.5,P24,0.09815,P75,-208.8,P6,-2.069,P5,18.56,P2,81.77,P90
9517,C94,,26.0%,Max,37.12,P2,3.190,P2,6.119,P2,-0.2029,P88,-86.63,P67,2.205,P2,151.1,P12,235.7,P6
9517,C94,,26.0%,Min,-31.75,P3,-0.8606,P46,-151.1,P12,-1.725,P6,-235.6,P6,-0.6185,P46,5.577,P4,86.63,P67
9517,C94,,32.5%,Max,37.12,P2,3.190,P2,8.165,P2,-0.2029,P88,-93.07,P67,1.663,P2,148.3,P12,288.7,P25
9517,C94,,32.5%,Min,-31.75,P3,-0.8606,P46,-148.3,P12,-1.725,P6,-288.7,P25,-0.5778,P3,3.981,P4,93.07,P67
9517,C94,,39.0%,Max,37.12,P2,3.190,P2,10.21,P2,-0.2029,P88,-92.84,P2,1.120,P2,145.6,P12,340.7,P25
9517,C94,,39.0%,Min,-31.75,P3,-0.8606,P46,-145.5,P12,-1.725,P6,-340.7,P25,-1.193,P3,2.992,P4,92.85,P2
9517,C94,,45.5%,Max,37.12,P2,3.190,P2,12.26,P2,-0.2029,P88,-89.47,P2,0.5776,P2,142.8,P12,391.8,P25
9517,C94,,45.5%,Min,-31.75,P3,-0.8606,P46,-142.8,P12,-1.725,P6,-391.8,P25,-1.809,P3,3.229,P4,89.47,P2
9517,C94,,51.9%,Max,37.12,P2,3.190,P2,14.30,P2,-0.2029,P88,-85.35,P2,0.6281,P46,140.3,P3,441.9,P25
9517,C94,,51.9%,Min,-31.75,P3,-0.8606,P46,-140.3,P3,-1.725,P6,-441.9,P25,-2.424,P3,4.502,P4,85.35,P2
9517,C94,,51.9%,Max,85.48,P2,4.071,P2,249.5,P31,1.689,P19,-58.95,P2,2.821,P2,249.5,P31,417.3,P25
9517,C94,,51.9%,Min,-70.73,P3,-1.033,P54,47.38,P3,-0.1814,P3,-417.3,P25,-0.8342,P54,47.38,P3,59.02,P2
9517,C94,,58.0%,Max,85.48,P2,4.071,P2,252.0,P31,1.689,P19,4.132,P2,2.087,P2,252.0,P31,348.1,P12
9517,C94,,58.0%,Min,-70.73,P3,-1.033,P54,49.27,P3,-0.1814,P3,-348.1,P12,-0.6865,P3,49.27,P3,4.629,P2
9517,C94,,64.0%,Max,85.48,P2,4.071,P2,254.6,P31,1.689,P19,67.85,P2,1.352,P2,254.6,P31,313.2,P3
9517,C94,,64.0%,Min,-70.73,P3,-1.033,P54,51.17,P3,-0.1814,P3,-313.2,P3,-1.339,P3,51.17,P3,5.870,P67
9517,C94,,70.0%,Max,85.48,P2,4.071,P2,257.1,P31,1.689,P19,132.2,P2,0.6181,P2,257.1,P31,295.0,P3
9517,C94,,70.0%,Min,-70.73,P3,-1.033,P54,53.06,P3,-0.1814,P3,-295.0,P3,-1.991,P3,53.06,P3,2.274,P92
9517,C94,,76.0%,Max,85.48,P2,4.071,P2,259.7,P31,1.689,P19,197.2,P2,0.5496,P54,259.7,P31,276.3,P3
9517,C94,,76.0%,Min,-70.73,P3,-1.033,P54,54.95,P3,-0.1814,P3,-276.3,P3,-2.643,P3,54.95,P3,1.025,P57
9517,C94,,76.0%,Max,134.7,P2,4.330,P2,305.4,P31,0.1886,P2,227.0,P2,2.492,P2,305.4,P31,266.8,P3
9517,C94,,76.0%,Min,-131.6,P3,-4.174,P3,77.32,P3,-2.767,P24,-266.8,P3,-2.830,P3,77.44,P3,0.3588,P8
9517,C94,,82.0%,Max,134.7,P2,4.330,P2,308.0,P31,0.1886,P2,300.4,P2,2.575,P2,308.0,P31,300.4,P2
9517,C94,,82.0%,Min,-131.6,P3,-4.174,P3,79.22,P3,-2.767,P24,-240.3,P3,-2.965,P3,79.33,P3,2.236,P88
9517,C94,,88.0%,Max,134.7,P2,4.330,P2,310.5,P31,0.1886,P2,374.3,P2,2.657,P2,310.5,P31,374.3,P2
9517,C94,,88.0%,Min,-131.6,P3,-4.174,P3,81.11,P3,-2.767,P24,-213.1,P3,-3.100,P3,81.22,P3,0.7130,P34
9517,C94,,94.0%,Max,134.7,P2,4.330,P2,313.1,P31,0.1886,P2,448.9,P2,2.740,P2,313.1,P31,448.9,P2
9517,C94,,94.0%,Min,-131.6,P3,-4.174,P3,83.00,P3,-2.767,P24,-185.3,P3,-3.235,P3,83.11,P3,0.1717,P41
9517,C94,7440,100.0%,Max,134.7,P2,4.330,P2,315.6,P31,0.1886,P2,524.2,P2,2.822,P2,315.6,P31,524.2,P2
9517,C94,7440,100.0%,Min,-131.6,P3,-4.174,P3,84.89,P3,-2.767,P24,-156.9,P3,-3.369,P3,85.00,P3,1.817,P72
9518,C94,5039,0.0%,Max,-1.660,P2,4.078,P2,-36.13,P2,0.3734,P2,151.5,P2,3.315,P2,241.1,P24,151.6,P2
9518,C94,5039,0.0%,Min,-30.24,P3,-1.445,P55,-241.1,P24,-0.4500,P3,-58.23,P3,-1.228,P55,36.36,P2,1.649,P44
9518,C94,,6.4%,Max,-1.660,P2,4.078,P2,-34.08,P2,0.3734,P2,87.99,P2,2.621,P2,238.3,P24,88.02,P2
9518,C94,,6.4%,Min,-30.24,P3,-1.445,P55,-238.3,P24,-0.4500,P3,-79.03,P3,-1.458,P3,34.32,P2,0.6635,P22
9518,C94,,12.9%,Max,-1.660,P2,4.078,P2,-32.03,P2,0.3734,P2,25.17,P2,1.927,P2,235.6,P24,99.10,P3
9518,C94,,12.9%,Min,-30.24,P3,-1.445,P55,-235.6,P24,-0.4500,P3,-99.09,P3,-1.843,P3,32.29,P2,2.434,P48
9518,C94,,19.3%,Max,-1.660,P2,4.078,P2,-29.99,P2,0.3734,P2,-36.90,P2,1.234,P2,232.8,P24,160.5,P31
9518,C94,,19.3%,Min,-30.24,P3,-1.445,P55,-232.8,P24,-0.4500,P3,-160.5,P31,-2.229,P3,30.26,P2,36.92,P2
9518,C94,,25.7%,Max,-1.660,P2,4.078,P2,-27.94,P2,0.3734,P2,-87.99,P55,0.8670,P55,230.0,P24,233.5,P24
9518,C94,,25.7%,Min,-30.24,P3,-1.445,P55,-230.0,P24,-0.4500,P3,-233.5,P24,-2.614,P3,28.23,P2,87.99,P55
9518,C94,,25.7%,Max,23.89,P4,4.415,P2,-0.1168,P2,0.005816,P2,-93.74,P55,3.023,P2,167.9,P12,266.6,P24
9518,C94,,25.7%,Min,-42.04,P5,-1.295,P3,-167.9,P12,-0.6384,P30,-266.6,P24,-0.9447,P3,4.417,P2,93.75,P55
9518,C94,,32.2%,Max,23.89,P4,4.415,P2,1.930,P2,0.005816,P2,-99.30,P67,2.502,P2,165.1,P12,325.6,P24
9518,C94,,32.2%,Min,-42.04,P5,-1.295,P3,-165.1,P12,-0.6384,P30,-325.6,P24,-1.555,P3,4.819,P2,99.30,P67
9518,C94,,38.6%,Max,23.89,P4,4.415,P2,3.977,P2,0.005816,P2,-103.1,P2,1.982,P2,162.4,P12,383.6,P24
9518,C94,,38.6%,Min,-42.04,P5,-1.295,P3,-162.3,P12,-0.6384,P30,-383.6,P24,-2.165,P3,5.943,P2,103.1,P2
9518,C94,,45.0%,Max,23.89,P4,4.415,P2,6.024,P2,0.005816,P2,-102.0,P2,1.461,P2,159.6,P12,440.6,P24
9518,C94,,45.0%,Min,-42.04,P5,-1.295,P3,-159.6,P12,-0.6384,P30,-440.6,P24,-2.775,P3,5.598,P4,102.0,P2
9518,C94,,51.5%,Max,23.89,P4,4.415,P2,8.072,P2,0.005816,P2,-100.2,P2,0.9410,P2,156.8,P12,496.6,P24
9518,C94,,51.5%,Min,-42.04,P5,-1.295,P3,-156.8,P12,-0.6384,P30,-496.6,P24,-3.386,P3,4.392,P4,100.2,P2
9518,C94,,51.5%,Max,58.17,P2,8.376,P79,251.4,P31,0.9115,P83,-86.69,P2,4.561,P79,251.4,P31,493.1,P24
9518,C94,,51.5%,Min,-73.86,P3,-4.992,P83,39.80,P49,-1.714,P7,-493.1,P24,-2.683,P83,39.87,P49,86.78,P2
9518,C94,,57.5%,Max,58.17,P2,8.376,P79,254.0,P31,0.9115,P83,-31.63,P2,3.705,P2,254.1,P31,425.9,P12
9518,C94,,57.5%,Min,-73.86,P3,-4.992,P83,41.73,P49,-1.714,P7,-425.9,P12,-2.692,P3,41.80,P49,31.85,P2
9518,C94,,63.6%,Max,58.17,P2,8.376,P79,256.6,P31,0.9115,P83,24.09,P2,3.369,P2,256.7,P31,370.6,P13
9518,C94,,63.6%,Min,-73.86,P3,-4.992,P83,43.66,P49,-1.714,P7,-370.6,P13,-3.540,P3,43.73,P49,2.439,P4
9518,C94,,69.7%,Max,58.17,P2,8.376,P79,259.2,P31,0.9115,P83,80.47,P2,3.033,P2,259.3,P31,336.0,P3
9518,C94,,69.7%,Min,-73.86,P3,-4.992,P83,45.59,P49,-1.714,P7,-336.0,P3,-4.388,P3,45.66,P49,0.9159,P91
9518,C94,,75.7%,Max,58.17,P2,8.376,P79,261.8,P31,0.9115,P83,137.5,P2,4.144,P83,261.9,P31,317.1,P3
9518,C94,,75.7%,Min,-73.86,P3,-4.992,P83,47.52,P49,-1.714,P7,-317.1,P3,-6.895,P79,47.59,P49,6.923,P79
9518,C94,,75.7%,Max,91.63,P2,54.63,P55,322.7,P31,1.497,P83,164.8,P2,27.43,P55,323.6,P31,306.9,P3
9518,C94,,75.7%,Min,-117.1,P3,-41.08,P85,68.92,P49,-2.183,P79,-306.7,P3,-20.69,P85,68.94,P49,5.533,P45
9518,C94,,81.8%,Max,91.63,P2,54.63,P55,325.3,P31,1.497,P83,232.7,P2,16.83,P2,326.2,P31,278.4,P3
9518,C94,,81.8%,Min,-117.1,P3,-41.08,P85,70.85,P49,-2.183,P79,-277.9,P3,-15.80,P3,70.87,P49,1.171,P23
9518,C94,,87.9%,Max,91.63,P2,54.63,P55,328.0,P31,1.497,P83,301.2,P2,18.21,P2,328.8,P31,301.8,P2
9518,C94,,87.9%,Min,-117.1,P3,-41.08,P85,72.78,P49,-2.183,P79,-248.5,P3,-19.38,P3,72.80,P49,1.503,P25
9518,C94,,93.9%,Max,91.63,P2,54.63,P55,330.6,P31,1.497,P83,407.9,P19,21.45,P85,331.4,P31,408.4,P19
9518,C94,,93.9%,Min,-117.1,P3,-41.08,P85,74.72,P49,-2.183,P79,-218.4,P3,-28.61,P55,74.73,P49,8.356,P12
9518,C94,7438,100.0%,Max,91.63,P2,54.63,P55,333.2,P31,1.497,P83,518.7,P19,35.50,P85,334.0,P31,519.7,P19
9518,C94,7438,100.0%,Min,-117.1,P3,-41.08,P85,76.65,P49,-2.183,P79,-187.6,P3,-47.29,P55,76.66,P49,38.83,P76
9519,C94,5036,0.0%,Max,25.00,P55,2.195,P4,-38.79,P67,0.08410,P48,153.2,P2,1.577,P4,251.4,P24,153.2,P2
9519,C94,5036,0.0%,Min,-68.67,P5,-0.8039,P62,-251.4,P24,-0.4635,P21,-51.20,P3,-0.6975,P62,38.79,P67,1.001,P56
9519,C94,,6.4%,Max,25.00,P55,2.195,P4,-36.74,P67,0.08410,P48,89.82,P2,1.241,P4,248.6,P24,89.83,P2
9519,C94,,6.4%,Min,-68.67,P5,-0.8039,P62,-248.6,P24,-0.4635,P21,-76.52,P3,-0.6731,P5,36.74,P67,0.1089,P22
9519,C94,,12.8%,Max,25.00,P55,2.195,P4,-34.69,P67,0.08410,P48,27.15,P2,0.9048,P4,245.9,P24,101.1,P3
9519,C94,,12.8%,Min,-68.67,P5,-0.8039,P62,-245.9,P24,-0.4635,P21,-101.1,P3,-0.9969,P5,34.69,P67,5.176,P48
9519,C94,,19.2%,Max,25.00,P55,2.195,P4,-32.64,P67,0.08410,P48,-34.78,P2,0.5689,P4,243.1,P24,160.1,P33
9519,C94,,19.2%,Min,-68.67,P5,-0.8039,P62,-243.1,P24,-0.4635,P21,-160.1,P33,-1.321,P5,32.64,P67,34.78,P2
9519,C94,,25.6%,Max,25.00,P55,2.195,P4,-30.59,P67,0.08410,P48,-81.79,P55,0.5354,P50,240.3,P24,242.2,P25
9519,C94,,25.6%,Min,-68.67,P5,-0.8039,P62,-240.3,P24,-0.4635,P21,-242.2,P25,-1.644,P5,30.59,P67,81.79,P55
9519,C94,,25.6%,Max,54.02,P4,2.259,P2,-5.828,P67,-0.1166,P4,-85.30,P67,1.614,P2,180.1,P12,274.9,P25
9519,C94,,25.6%,Min,-96.27,P5,-1.132,P62,-180.1,P12,-0.5266,P33,-274.9,P25,-0.8016,P62,5.835,P67,85.30,P67
9519,C94,,31.9%,Max,54.02,P4,2.259,P2,-3.777,P67,-0.1166,P4,-87.04,P67,1.324,P2,177.4,P12,337.4,P25
9519,C94,,31.9%,Min,-96.27,P5,-1.132,P62,-177.4,P12,-0.5266,P33,-337.4,P25,-1.000,P3,3.788,P67,87.04,P67
9519,C94,,38.3%,Max,54.02,P4,2.259,P2,-1.726,P67,-0.1166,P4,-88.04,P67,1.035,P2,174.6,P12,399.0,P25
9519,C94,,38.3%,Min,-96.27,P5,-1.132,P62,-174.6,P12,-0.5266,P33,-399.0,P25,-1.234,P3,1.751,P67,88.04,P67
9519,C94,,44.7%,Max,54.02,P4,2.259,P2,0.3242,P67,-0.1166,P4,-88.29,P67,0.7453,P2,171.8,P12,459.5,P24
9519,C94,,44.7%,Min,-96.27,P5,-1.132,P62,-171.8,P12,-0.5266,P33,-459.5,P24,-1.467,P3,0.4372,P67,88.29,P67
9519,C94,,51.1%,Max,54.02,P4,2.259,P2,2.375,P67,-0.1166,P4,-87.80,P67,0.8428,P62,169.0,P12,519.2,P24
9519,C94,,51.1%,Min,-96.27,P5,-1.132,P62,-169.0,P12,-0.5266,P33,-519.2,P24,-1.700,P3,2.075,P43,87.80,P67
9519,C94,,51.1%,Max,113.8,P4,4.292,P2,248.3,P31,-0.3259,P67,-78.03,P67,3.026,P2,248.3,P31,522.4,P24
9519,C94,,51.1%,Min,-170.9,P5,-3.804,P3,29.35,P48,-2.370,P24,-522.4,P24,-2.725,P3,29.51,P48,78.04,P67
9519,C94,,57.2%,Max,113.8,P4,4.292,P2,251.0,P31,-0.3259,P67,-26.28,P67,2.923,P2,251.0,P31,466.7,P12
9519,C94,,57.2%,Min,-170.9,P5,-3.804,P3,31.31,P48,-2.370,P24,-466.7,P12,-2.791,P3,31.46,P48,26.29,P67
9519,C94,,63.3%,Max,113.8,P4,4.292,P2,253.6,P31,-0.3259,P67,26.15,P67,2.821,P2,253.6,P31,415.4,P12
9519,C94,,63.3%,Min,-170.9,P5,-3.804,P3,33.27,P48,-2.370,P24,-415.4,P12,-2.858,P3,33.41,P48,0.9425,P42
9519,C94,,69.4%,Max,113.8,P4,4.292,P2,256.3,P31,-0.3259,P67,79.25,P67,2.718,P2,256.3,P31,365.0,P3
9519,C94,,69.4%,Min,-170.9,P5,-3.804,P3,35.24,P48,-2.370,P24,-365.0,P3,-2.925,P3,35.37,P48,1.648,P90
9519,C94,,75.6%,Max,113.8,P4,4.292,P2,258.9,P31,-0.3259,P67,139.8,P2,2.651,P4,258.9,P31,349.5,P3
9519,C94,,75.6%,Min,-170.9,P5,-3.804,P3,37.20,P48,-2.370,P24,-349.5,P3,-3.027,P5,37.32,P48,1.091,P93
9519,C94,,75.6%,Max,198.2,P2,15.89,P55,310.0,P31,2.332,P8,169.0,P2,8.321,P55,310.2,P31,340.7,P3
9519,C94,,75.6%,Min,-282.6,P3,-11.41,P60,53.80,P48,-0.07156,P3,-340.6,P3,-5.743,P60,54.15,P48,5.844,P21
9519,C94,,81.7%,Max,198.2,P2,15.89,P55,312.7,P31,2.332,P8,239.1,P2,7.990,P4,312.8,P31,316.9,P3
9519,C94,,81.7%,Min,-282.6,P3,-11.41,P60,55.76,P48,-0.07156,P3,-316.9,P3,-6.727,P5,56.10,P48,1.386,P27
9519,C94,,87.8%,Max,198.2,P2,15.89,P55,315.3,P31,2.332,P8,312.9,P19,8.191,P4,315.5,P31,312.9,P19
9519,C94,,87.8%,Min,-282.6,P3,-11.41,P60,57.73,P48,-0.07156,P3,-292.5,P3,-8.182,P5,58.05,P48,1.800,P46
9519,C94,,93.9%,Max,198.2,P2,15.89,P55,318.0,P31,2.332,P8,421.0,P19,8.393,P4,318.1,P31,421.0,P19
9519,C94,,93.9%,Min,-282.6,P3,-11.41,P60,59.69,P48,-0.07156,P3,-267.4,P3,-9.637,P5,60.00,P48,7.849,P70
9519,C94,7439,100.0%,Max,198.2,P2,15.89,P55,320.6,P31,2.332,P8,530.0,P19,10.10,P60,320.8,P31,530.1,P19
9519,C94,7439,100.0%,Min,-282.6,P3,-11.41,P60,61.65,P48,-0.07156,P3,-241.6,P3,-13.74,P55,61.95,P48,7.532,P12
9520,C94,5033,0.0%,Max,13.73,P55,2.559,P2,-35.00,P67,0.5758,P2,146.6,P2,2.387,P2,241.6,P25,146.6,P2
9520,C94,5033,0.0%,Min,-83.40,P13,-4.249,P3,-241.6,P25,-0.1258,P3,-33.65,P3,-3.944,P3,35.05,P67,1.136,P44
9520,C94,,6.9%,Max,13.73,P55,2.559,P2,-32.79,P67,0.5758,P2,83.98,P2,2.462,P2,238.6,P25,84.02,P2
9520,C94,,6.9%,Min,-83.40,P13,-4.249,P3,-238.6,P25,-0.1258,P3,-64.47,P3,-3.360,P3,32.85,P67,1.065,P35
9520,C94,,13.9%,Max,13.73,P55,2.559,P2,-30.59,P67,0.5758,P2,22.26,P2,2.537,P2,235.6,P25,94.47,P3
9520,C94,,13.9%,Min,-83.40,P13,-4.249,P3,-235.6,P25,-0.1258,P3,-94.42,P3,-2.776,P3,30.65,P67,15.34,P48
9520,C94,,20.8%,Max,13.73,P55,2.559,P2,-28.39,P67,0.5758,P2,-38.61,P2,2.612,P2,232.7,P25,159.1,P29
9520,C94,,20.8%,Min,-83.40,P13,-4.249,P3,-232.7,P25,-0.1258,P3,-159.1,P29,-2.192,P3,28.45,P67,38.70,P2
9520,C94,,27.7%,Max,13.73,P55,2.559,P2,-26.18,P67,0.5758,P2,-70.85,P67,2.688,P2,229.7,P25,249.1,P25
9520,C94,,27.7%,Min,-83.40,P13,-4.249,P3,-229.7,P25,-0.1258,P3,-249.1,P25,-1.608,P3,26.25,P67,70.86,P67
9520,C94,,27.7%,Max,26.70,P67,3.389,P2,0.4885,P67,0.2171,P2,-72.93,P67,2.605,P2,165.4,P13,284.6,P25
9520,C94,,27.7%,Min,-123.1,P13,-5.795,P3,-165.3,P13,-0.2532,P3,-284.6,P25,-4.605,P3,2.472,P67,72.95,P67
9520,C94,,34.7%,Max,26.70,P67,3.389,P2,2.693,P67,0.2171,P2,-72.31,P67,3.065,P2,162.4,P13,345.9,P25
9520,C94,,34.7%,Min,-123.1,P13,-5.795,P3,-162.4,P13,-0.2532,P3,-345.9,P25,-4.126,P3,2.288,P66,72.31,P67
9520,C94,,41.6%,Max,26.70,P67,3.389,P2,4.897,P67,0.2171,P2,-70.83,P67,3.524,P2,159.4,P13,405.9,P25
9520,C94,,41.6%,Min,-123.1,P13,-5.795,P3,-159.4,P13,-0.2532,P3,-405.9,P25,-3.647,P3,1.882,P43,70.83,P67
9520,C94,,48.5%,Max,26.70,P67,3.389,P2,7.101,P67,0.2171,P2,-68.49,P67,3.984,P2,156.5,P13,464.8,P25
9520,C94,,48.5%,Min,-123.1,P13,-5.795,P3,-156.4,P13,-0.2532,P3,-464.8,P25,-3.167,P3,2.060,P42,68.49,P67
9520,C94,,55.5%,Max,26.70,P67,3.389,P2,9.305,P67,0.2171,P2,-65.29,P67,4.443,P2,153.5,P13,522.6,P25
9520,C94,,55.5%,Min,-123.1,P13,-5.795,P3,-153.4,P13,-0.2532,P3,-522.6,P25,-2.688,P3,1.354,P55,65.31,P67
9520,C94,,55.5%,Max,53.58,P67,5.506,P67,230.1,P19,1.563,P8,-47.76,P67,3.620,P2,230.1,P19,512.3,P13
9520,C94,,55.5%,Min,-216.7,P3,-13.46,P3,20.17,P49,0.1313,P3,-512.3,P13,-8.802,P3,23.41,P49,47.88,P67
9520,C94,,61.0%,Max,53.58,P67,5.506,P67,232.5,P19,1.563,P8,-3.914,P67,4.734,P2,232.5,P19,476.3,P13
9520,C94,,61.0%,Min,-216.7,P3,-13.46,P3,21.94,P49,0.1313,P3,-476.3,P13,-7.422,P3,24.95,P49,4.266,P67
9520,C94,,66.6%,Max,53.58,P67,5.506,P67,234.9,P19,1.563,P8,40.49,P67,5.849,P2,234.9,P19,439.6,P13
9520,C94,,66.6%,Min,-216.7,P3,-13.46,P3,23.71,P49,0.1313,P3,-439.6,P13,-6.042,P3,26.52,P49,4.479,P54
9520,C94,,72.2%,Max,53.58,P67,5.506,P67,237.2,P19,1.563,P8,85.44,P67,6.963,P2,237.2,P19,402.2,P13
9520,C94,,72.2%,Min,-216.7,P3,-13.46,P3,25.48,P49,0.1313,P3,-402.2,P13,-4.662,P3,28.12,P49,2.379,P91
9520,C94,,77.7%,Max,53.58,P67,5.506,P67,239.6,P19,1.563,P8,131.0,P67,8.077,P2,239.6,P19,367.7,P3
9520,C94,,77.7%,Min,-216.7,P3,-13.46,P3,27.25,P49,0.1313,P3,-367.7,P3,-3.479,P67,29.73,P49,3.491,P92
9520,C94,,77.7%,Max,84.83,P2,11.67,P67,279.1,P19,0.2738,P2,150.2,P67,5.393,P67,279.1,P19,362.7,P3
9520,C94,,77.7%,Min,-338.9,P3,-26.72,P13,41.32,P49,-0.9462,P3,-362.5,P3,-13.45,P13,47.29,P49,1.468,P20
9520,C94,,83.3%,Max,84.83,P2,11.67,P67,281.5,P19,0.2738,P2,201.8,P67,5.800,P2,281.5,P19,346.6,P3
9520,C94,,83.3%,Min,-338.9,P3,-26.72,P13,43.09,P49,-0.9462,P3,-346.4,P3,-9.473,P3,48.84,P49,2.269,P50
9520,C94,,88.9%,Max,84.83,P2,11.67,P67,283.9,P19,0.2738,P2,254.0,P67,9.354,P2,283.9,P19,329.8,P3
9520,C94,,88.9%,Min,-338.9,P3,-26.72,P13,44.86,P49,-0.9462,P3,-329.8,P3,-7.297,P3,50.41,P49,4.193,P23
9520,C94,,94.4%,Max,84.83,P2,11.67,P67,286.3,P19,0.2738,P2,336.4,P19,12.91,P2,286.3,P19,336.4,P19
9520,C94,,94.4%,Min,-338.9,P3,-26.72,P13,46.63,P49,-0.9462,P3,-312.5,P3,-5.577,P67,51.99,P49,3.303,P70
9520,C94,7445,100.0%,Max,84.83,P2,11.67,P67,288.6,P19,0.2738,P2,426.4,P19,20.03,P13,288.7,P19,426.4,P19
9520,C94,7445,100.0%,Min,-338.9,P3,-26.72,P13,48.40,P49,-0.9462,P3,-294.8,P3,-9.234,P67,53.58,P49,20.34,P28
9521,C94,5030,0.0%,Max,11.50,P55,8.484,P2,-68.03,P67,0.2970,P67,274.5,P2,7.241,P2,305.9,P24,274.6,P2
9521,C94,5030,0.0%,Min,-99.57,P13,-19.29,P3,-305.5,P24,-1.079,P13,-47.88,P3,-17.22,P3,68.28,P67,5.944,P43
9521,C94,,6.7%,Max,11.50,P55,8.484,P2,-65.96,P67,0.2970,P67,189.3,P2,8.176,P2,303.1,P24,189.5,P2
9521,C94,,6.7%,Min,-99.57,P13,-19.29,P3,-302.8,P24,-1.079,P13,-74.78,P3,-14.21,P3,66.22,P67,1.114,P92
9521,C94,,13.4%,Max,11.50,P55,8.484,P2,-63.90,P67,0.2970,P67,104.8,P2,9.110,P2,300.3,P24,105.2,P2
9521,C94,,13.4%,Min,-99.57,P13,-19.29,P3,-300.0,P24,-1.079,P13,-100.9,P3,-11.19,P3,64.17,P67,0.9654,P81
9521,C94,,20.0%,Max,11.50,P55,8.484,P2,-61.84,P67,0.2970,P67,21.17,P2,10.04,P2,297.5,P24,130.1,P31
9521,C94,,20.0%,Min,-99.57,P13,-19.29,P3,-297.2,P24,-1.079,P13,-130.1,P31,-8.180,P3,62.11,P67,13.38,P48
9521,C94,,26.7%,Max,11.50,P55,8.484,P2,-59.77,P67,0.2970,P67,-61.76,P2,10.98,P2,294.7,P24,217.3,P31
9521,C94,,26.7%,Min,-99.57,P13,-19.29,P3,-294.4,P24,-1.079,P13,-217.3,P31,-5.165,P3,60.06,P67,62.72,P2
9521,C94,,26.7%,Max,48.72,P2,5.488,P67,-27.33,P2,-0.09395,P79,-93.14,P2,4.140,P67,217.6,P25,250.8,P8
9521,C94,,26.7%,Min,-201.2,P3,-17.94,P13,-217.0,P25,-2.568,P9,-250.7,P8,-13.61,P13,27.83,P2,93.22,P2
9521,C94,,33.4%,Max,48.72,P2,5.488,P67,-25.27,P2,-0.09395,P79,-115.2,P55,6.093,P2,214.8,P25,324.2,P25
9521,C94,,33.4%,Min,-201.2,P3,-17.94,P13,-214.2,P25,-2.568,P9,-324.2,P25,-11.09,P3,25.80,P2,115.2,P55
9521,C94,,40.1%,Max,48.72,P2,5.488,P67,-23.21,P2,-0.09395,P79,-127.3,P67,8.242,P2,212.0,P25,401.9,P25
9521,C94,,40.1%,Min,-201.2,P3,-17.94,P13,-211.5,P25,-2.568,P9,-401.9,P25,-8.621,P3,23.79,P2,127.3,P67
9521,C94,,46.8%,Max,48.72,P2,5.488,P67,-21.14,P2,-0.09395,P79,-136.0,P67,10.39,P2,209.2,P25,478.7,P25
9521,C94,,46.8%,Min,-201.2,P3,-17.94,P13,-208.7,P25,-2.568,P9,-478.6,P25,-6.147,P3,21.78,P2,136.0,P67
9521,C94,,53.4%,Max,48.72,P2,5.488,P67,-19.08,P2,-0.09395,P79,-143.8,P67,12.61,P13,206.4,P25,554.5,P25
9521,C94,,53.4%,Min,-201.2,P3,-17.94,P13,-205.9,P25,-2.568,P9,-554.4,P25,-3.879,P67,19.78,P2,143.9,P67
9521,C94,,53.4%,Max,61.48,P2,5.454,P67,312.8,P31,-1.224,P85,-141.6,P67,3.476,P67,312.9,P31,573.3,P25
9521,C94,,53.4%,Min,-233.5,P3,-15.94,P3,59.95,P3,-4.159,P6,-573.3,P25,-10.48,P3,62.04,P3,141.7,P67
9521,C94,,59.3%,Max,61.48,P2,5.454,P67,315.3,P31,-1.224,P85,-86.58,P67,4.665,P2,315.3,P31,490.3,P24
9521,C94,,59.3%,Min,-233.5,P3,-15.94,P3,61.75,P3,-4.159,P6,-490.3,P24,-8.507,P3,63.78,P3,86.59,P67
9521,C94,,65.1%,Max,61.48,P2,5.454,P67,317.7,P31,-1.224,P85,-30.94,P67,6.394,P2,317.7,P31,409.7,P12
9521,C94,,65.1%,Min,-233.5,P3,-15.94,P3,63.55,P3,-4.159,P6,-409.7,P12,-6.537,P3,65.52,P3,30.94,P67
9521,C94,,70.9%,Max,61.48,P2,5.454,P67,320.1,P31,-1.224,P85,25.26,P67,8.123,P2,320.1,P31,339.7,P12
9521,C94,,70.9%,Min,-233.5,P3,-15.94,P3,65.35,P3,-4.159,P6,-339.7,P12,-4.568,P3,67.27,P3,4.378,P42
9521,C94,,76.7%,Max,61.48,P2,5.454,P67,322.5,P31,-1.224,P85,85.51,P2,9.920,P13,322.6,P31,310.3,P3
9521,C94,,76.7%,Min,-233.5,P3,-15.94,P3,67.15,P3,-4.159,P6,-310.3,P3,-3.471,P67,69.01,P3,1.163,P19
9521,C94,,76.7%,Max,70.62,P2,26.81,P55,369.0,P31,0.3978,P85,115.9,P2,13.14,P55,369.0,P31,299.3,P3
9521,C94,,76.7%,Min,-295.2,P3,-32.31,P3,85.67,P48,-2.055,P19,-298.8,P3,-16.42,P5,87.03,P48,0.5454,P38
9521,C94,,82.5%,Max,70.62,P2,26.81,P55,371.5,P31,0.3978,P85,191.1,P2,12.13,P4,371.5,P31,270.3,P3
9521,C94,,82.5%,Min,-295.2,P3,-32.31,P3,87.46,P48,-2.055,P19,-269.9,P3,-15.10,P5,88.80,P48,1.959,P81
9521,C94,,88.4%,Max,70.62,P2,26.81,P55,373.9,P31,0.3978,P85,273.2,P19,16.37,P2,373.9,P31,273.2,P19
9521,C94,,88.4%,Min,-295.2,P3,-32.31,P3,89.26,P48,-2.055,P19,-240.4,P3,-13.80,P3,90.57,P48,4.564,P24
9521,C94,,94.2%,Max,70.62,P2,26.81,P55,376.3,P31,0.3978,P85,388.4,P19,20.62,P2,376.3,P31,388.5,P19
9521,C94,,94.2%,Min,-295.2,P3,-32.31,P3,91.06,P48,-2.055,P19,-210.4,P3,-12.51,P3,92.35,P48,13.31,P84
9521,C94,7447,100.0%,Max,70.62,P2,26.81,P55,378.7,P31,0.3978,P85,504.4,P19,24.88,P2,378.8,P31,504.5,P19
9521,C94,7447,100.0%,Min,-295.2,P3,-32.31,P3,92.86,P48,-2.055,P19,-179.7,P3,-21.01,P55,94.12,P48,27.90,P65
9522,C94,7588,0.0%,Max,547.9,P2,21.24,P2,20.37,P4,74.37,P8,420.2,P60,19.79,P2,195.5,P12,422.4,P60
9522,C94,7588,0.0%,Min,-370.1,P59,-65.32,P3,-191.2,P12,26.12,P57,-225.4,P5,-67.55,P3,11.18,P54,12.25,P69
9522,C94,,6.2%,Max,547.9,P2,21.24,P2,24.22,P4,74.37,P8,353.6,P60,24.74,P2,190.4,P12,354.6,P60
9522,C94,,6.2%,Min,-370.1,P59,-65.32,P3,-186.0,P12,26.12,P57,-216.4,P5,-54.49,P3,12.04,P54,7.484,P75
9522,C94,,12.4%,Max,547.9,P2,21.24,P2,28.06,P4,74.37,P8,288.7,P60,29.70,P2,185.3,P12,288.8,P60
9522,C94,,12.4%,Min,-370.1,P59,-65.32,P3,-180.8,P12,26.12,P57,-205.8,P5,-41.42,P3,9.264,P45,1.023,P76
9522,C94,,18.6%,Max,547.9,P2,21.24,P2,31.91,P4,74.37,P8,225.3,P60,34.65,P2,180.3,P12,225.5,P60
9522,C94,,18.6%,Min,-370.1,P59,-65.32,P3,-175.6,P12,26.12,P57,-193.6,P5,-28.35,P3,5.862,P44,1.891,P72
9522,C94,,24.9%,Max,547.9,P2,21.24,P2,35.76,P4,74.37,P8,163.4,P60,39.60,P2,175.2,P12,180.0,P5
9522,C94,,24.9%,Min,-370.1,P59,-65.32,P3,-170.5,P12,26.12,P57,-179.8,P5,-15.29,P3,2.520,P44,17.47,P93
9522,C94,,24.9%,Max,533.2,P80,1.306,P2,64.85,P4,33.29,P8,152.5,P60,2.635,P2,126.0,P60,180.2,P5
9522,C94,,24.9%,Min,-468.6,P83,-2.386,P3,-126.0,P60,11.14,P57,-180.2,P5,-1.823,P3,1.134,P20,0.9979,P93
9522,C94,,31.1%,Max,533.2,P80,1.306,P2,68.74,P4,33.29,P8,101.2,P60,3.562,P2,122.1,P60,153.7,P5
9522,C94,,31.1%,Min,-468.6,P83,-2.386,P3,-122.1,P60,11.14,P57,-153.7,P5,-2.303,P3,0.2407,P74,4.718,P90
9522,C94,,37.4%,Max,533.2,P80,1.306,P2,72.64,P4,33.29,P8,51.49,P60,4.490,P2,118.2,P60,125.6,P5
9522,C94,,37.4%,Min,-468.6,P83,-2.386,P3,-118.2,P60,11.14,P57,-125.5,P5,-2.784,P3,0.09956,P76,2.317,P53
9522,C94,,43.7%,Max,533.2,P80,1.306,P2,76.53,P4,33.29,P8,3.404,P60,5.417,P2,114.3,P60,114.1,P21
9522,C94,,43.7%,Min,-468.6,P83,-2.386,P3,-114.3,P60,11.14,P57,-114.1,P21,-3.265,P3,1.901,P73,3.441,P58
9522,C94,,50.0%,Max,533.2,P80,1.306,P2,80.43,P4,33.29,P8,-31.87,P72,6.345,P2,110.4,P60,113.7,P8
9522,C94,,50.0%,Min,-468.6,P83,-2.386,P3,-110.4,P60,11.14,P57,-113.6,P8,-3.746,P3,1.814,P72,31.87,P72
9522,C94,,50.0%,Max,570.0,P81,1.013,P57,121.3,P4,-10.80,P91,-29.80,P76,2.393,P2,121.3,P4,112.2,P8
9522,C94,,50.0%,Min,-540.7,P85,-2.052,P3,-77.43,P60,-30.47,P33,-112.2,P8,-1.970,P3,0.3910,P50,29.80,P76
9522,C94,,56.2%,Max,570.0,P81,1.013,P57,125.1,P4,-10.80,P91,8.290,P81,3.154,P2,125.1,P4,102.5,P9
9522,C94,,56.2%,Min,-540.7,P85,-2.052,P3,-73.58,P60,-30.47,P33,-102.5,P9,-2.305,P3,1.408,P90,1.553,P57
9522,C94,,62.4%,Max,570.0,P81,1.013,P57,129.0,P4,-10.80,P91,53.65,P81,3.916,P2,129.0,P4,109.0,P61
9522,C94,,62.4%,Min,-540.7,P85,-2.052,P3,-69.74,P60,-30.47,P33,-108.9,P61,-2.641,P3,1.359,P52,0.9055,P73
9522,C94,,68.6%,Max,570.0,P81,1.013,P57,132.8,P4,-10.80,P91,104.9,P4,4.677,P2,132.8,P4,136.6,P61
9522,C94,,68.6%,Min,-540.7,P85,-2.052,P3,-65.89,P60,-30.47,P33,-136.5,P61,-2.977,P3,1.636,P46,0.4560,P69
9522,C94,,74.9%,Max,570.0,P81,1.013,P57,136.7,P4,-10.80,P91,158.4,P4,5.439,P2,136.7,P4,162.6,P61
9522,C94,,74.9%,Min,-540.7,P85,-2.052,P3,-62.04,P60,-30.47,P33,-162.5,P61,-3.312,P3,1.311,P49,0.9412,P66
9522,C94,,74.9%,Max,597.5,P81,13.79,P2,184.5,P7,-26.48,P91,172.7,P4,12.90,P2,184.5,P7,173.2,P4
9522,C94,,74.9%,Min,-587.5,P85,-10.86,P3,-39.28,P60,-71.45,P33,-162.4,P61,-8.384,P3,3.741,P35,7.465,P66
9522,C94,,81.1%,Max,597.5,P81,13.79,P2,189.8,P7,-26.48,P91,242.0,P4,12.18,P2,189.8,P7,242.3,P4
9522,C94,,81.1%,Min,-587.5,P85,-10.86,P3,-35.39,P60,-71.45,P33,-177.7,P61,-8.879,P3,3.836,P35,0.1170,P50
9522,C94,,87.4%,Max,597.5,P81,13.79,P2,195.0,P7,-26.48,P91,313.0,P4,11.47,P2,195.1,P7,313.2,P4
9522,C94,,87.4%,Min,-587.5,P85,-10.86,P3,-31.49,P60,-71.45,P33,-191.4,P61,-9.374,P3,6.765,P35,0.8290,P14
9522,C94,,93.7%,Max,597.5,P81,13.79,P2,200.3,P7,-26.48,P91,385.5,P4,10.83,P4,200.3,P7,385.6,P4
9522,C94,,93.7%,Min,-587.5,P85,-10.86,P3,-27.60,P60,-71.45,P33,-203.6,P60,-9.949,P5,9.956,P37,1.010,P90
9522,C94,4794,100.0%,Max,597.5,P81,13.79,P2,205.5,P7,-26.48,P91,459.6,P4,10.46,P4,205.6,P7,459.7,P4
9522,C94,4794,100.0%,Min,-587.5,P85,-10.86,P3,-23.71,P60,-71.45,P33,-214.2,P60,-11.79,P60,8.111,P87,7.099,P49
9523,C94,4809,0.0%,Max,468.4,P79,42.65,P2,327.1,P81,36.14,P24,964.3,P83,35.53,P87,498.0,P83,964.9,P83
9523,C94,4809,0.0%,Min,-471.9,P85,-97.57,P3,-497.5,P83,6.505,P3,-780.8,P81,-86.53,P3,45.14,P19,62.43,P1
9523,C94,,6.3%,Max,468.4,P79,42.65,P2,330.0,P81,36.14,P24,813.0,P83,34.26,P2,495.1,P83,813.5,P83
9523,C94,,6.3%,Min,-471.9,P85,-97.57,P3,-494.6,P83,6.505,P3,-680.6,P81,-70.12,P3,45.32,P18,31.54,P1
9523,C94,,12.6%,Max,468.4,P79,42.65,P2,332.8,P81,36.14,P24,662.5,P83,34.61,P2,492.3,P83,662.9,P83
9523,C94,,12.6%,Min,-471.9,P85,-97.57,P3,-491.7,P83,6.505,P3,-579.5,P81,-53.71,P3,45.73,P18,22.69,P1
9523,C94,,18.9%,Max,468.4,P79,42.65,P2,335.7,P81,36.14,P24,512.9,P83,34.95,P2,489.4,P83,513.1,P83
9523,C94,,18.9%,Min,-471.9,P85,-97.57,P3,-488.8,P83,6.505,P3,-477.5,P81,-37.30,P3,46.46,P18,2.066,P69
9523,C94,,25.2%,Max,468.4,P79,42.65,P2,338.6,P81,36.14,P24,365.0,P58,35.30,P2,486.5,P83,374.7,P81
9523,C94,,25.2%,Min,-471.9,P85,-97.57,P3,-486.0,P83,6.505,P3,-374.7,P81,-20.89,P3,47.50,P18,18.59,P68
9523,C94,,25.2%,Max,516.3,P79,14.62,P4,342.0,P81,35.22,P24,347.9,P58,3.623,P2,481.4,P83,362.7,P81
9523,C94,,25.2%,Min,-578.9,P85,-18.48,P5,-481.1,P83,6.597,P3,-362.7,P81,-3.767,P3,2.116,P32,16.51,P67
9523,C94,,31.5%,Max,516.3,P79,14.62,P4,344.9,P81,35.22,P24,210.2,P58,8.554,P2,478.5,P83,262.2,P5
9523,C94,,31.5%,Min,-578.9,P85,-18.48,P5,-478.2,P83,6.597,P3,-262.1,P5,-7.519,P3,5.938,P32,2.537,P52
9523,C94,,37.8%,Max,516.3,P79,14.62,P4,347.8,P81,35.22,P24,86.99,P4,14.02,P4,475.6,P83,230.2,P5
9523,C94,,37.8%,Min,-578.9,P85,-18.48,P5,-475.4,P83,6.597,P3,-229.9,P5,-11.80,P5,8.962,P31,6.242,P90
9523,C94,,44.1%,Max,516.3,P79,14.62,P4,350.6,P81,35.22,P24,34.26,P4,19.58,P4,472.8,P83,197.4,P5
9523,C94,,44.1%,Min,-578.9,P85,-18.48,P5,-472.5,P83,6.597,P3,-196.7,P5,-16.18,P5,5.089,P31,18.72,P2
9523,C94,,50.4%,Max,516.3,P79,14.62,P4,353.5,P81,35.22,P24,61.66,P81,25.14,P4,469.9,P83,263.9,P9
9523,C94,,50.4%,Min,-578.9,P85,-18.48,P5,-469.6,P83,6.597,P3,-263.4,P9,-20.57,P5,1.242,P31,4.057,P72
9523,C94,,50.4%,Max,567.7,P79,22.55,P85,480.5,P7,-7.052,P2,73.89,P81,18.08,P4,481.0,P7,277.1,P9
9523,C94,,50.4%,Min,-652.5,P85,-23.32,P81,-348.0,P83,-31.76,P8,-276.8,P9,-18.57,P5,7.284,P47,5.516,P72
9523,C94,,56.6%,Max,567.7,P79,22.55,P85,484.4,P7,-7.052,P2,217.8,P81,16.61,P2,484.8,P7,356.8,P85
9523,C94,,56.6%,Min,-652.5,P85,-23.32,P81,-345.1,P83,-31.76,P8,-356.6,P85,-15.51,P3,10.06,P47,2.523,P21
9523,C94,,62.8%,Max,567.7,P79,22.55,P85,488.2,P7,-7.052,P2,362.6,P81,15.52,P2,488.6,P7,460.0,P85
9523,C94,,62.8%,Min,-652.5,P85,-23.32,P81,-342.3,P83,-31.76,P8,-459.9,P85,-12.83,P3,12.87,P47,16.35,P30
9523,C94,,69.0%,Max,567.7,P79,22.55,P85,492.0,P7,-7.052,P2,508.3,P81,14.44,P2,492.4,P7,562.4,P85
9523,C94,,69.0%,Min,-652.5,P85,-23.32,P81,-339.5,P83,-31.76,P8,-562.4,P85,-10.16,P3,15.68,P47,6.889,P50
9523,C94,,75.2%,Max,567.7,P79,22.55,P85,495.8,P7,-7.052,P2,654.8,P81,13.82,P80,496.2,P7,664.0,P85
9523,C94,,75.2%,Min,-652.5,P85,-23.32,P81,-336.6,P83,-31.76,P8,-664.0,P85,-10.66,P59,13.77,P14,3.314,P69
9523,C94,,75.2%,Max,469.7,P81,215.5,P85,514.3,P7,-9.213,P2,672.7,P81,33.66,P4,550.0,P7,676.1,P85
9523,C94,,75.2%,Min,-566.2,P85,-222.3,P81,-330.1,P83,-36.48,P24,-675.3,P85,-36.35,P5,28.78,P47,5.536,P68
9523,C94,,81.4%,Max,469.7,P81,215.5,P85,518.1,P7,-9.213,P2,822.7,P81,68.65,P4,553.6,P7,823.6,P81
9523,C94,,81.4%,Min,-566.2,P85,-222.3,P81,-327.3,P83,-36.48,P24,-774.0,P85,-56.08,P5,31.34,P47,17.13,P46
9523,C94,,87.6%,Max,469.7,P81,215.5,P85,521.9,P7,-9.213,P2,973.5,P81,106.2,P81,557.2,P7,979.3,P81
9523,C94,,87.6%,Min,-566.2,P85,-222.3,P81,-324.5,P83,-36.48,P24,-872.0,P85,-97.08,P83,33.95,P47,0.7179,P53
9523,C94,,93.8%,Max,469.7,P81,215.5,P85,525.8,P7,-9.213,P2,1125.,P81,173.1,P81,560.8,P7,1138.,P81
9523,C94,,93.8%,Min,-566.2,P85,-222.3,P81,-321.6,P83,-36.48,P24,-969.0,P85,-161.5,P85,36.60,P47,12.31,P26
9523,C94,4810,100.0%,Max,469.7,P81,215.5,P85,529.6,P7,-9.213,P2,1278.,P81,239.9,P81,564.4,P7,1300.,P81
9523,C94,4810,100.0%,Min,-566.2,P85,-222.3,P81,-318.8,P83,-36.48,P24,-1065.,P85,-226.3,P85,39.26,P47,10.12,P66
9524,C94,7592,0.0%,Max,758.5,P2,30.35,P2,-46.06,P4,21.28,P24,351.8,P12,31.29,P2,219.4,P12,352.6,P12
9524,C94,7592,0.0%,Min,-340.5,P3,-56.67,P3,-218.3,P12,5.506,P3,-43.00,P5,-60.56,P3,46.88,P4,39.56,P57
9524,C94,,6.3%,Max,758.5,P2,30.35,P2,-42.16,P4,21.28,P24,277.8,P4,31.79,P2,214.2,P12,278.1,P4
9524,C94,,6.3%,Min,-340.5,P3,-56.67,P3,-213.1,P12,5.506,P3,-62.95,P5,-50.16,P3,43.06,P4,17.46,P57
9524,C94,,12.5%,Max,758.5,P2,30.35,P2,-38.27,P4,21.28,P24,213.0,P4,32.28,P2,209.0,P12,213.5,P4
9524,C94,,12.5%,Min,-340.5,P3,-56.67,P3,-207.8,P12,5.506,P3,-81.28,P5,-39.77,P3,39.26,P4,4.841,P80
9524,C94,,18.8%,Max,758.5,P2,30.35,P2,-34.38,P4,21.28,P24,149.9,P4,32.77,P2,203.8,P12,150.9,P4
9524,C94,,18.8%,Min,-340.5,P3,-56.67,P3,-202.5,P12,5.506,P3,-98.00,P5,-29.37,P3,35.47,P4,4.557,P43
9524,C94,,25.0%,Max,758.5,P2,30.35,P2,-30.48,P4,21.28,P24,88.33,P4,33.27,P2,198.5,P12,113.3,P5
9524,C94,,25.0%,Min,-340.5,P3,-56.67,P3,-197.3,P12,5.506,P3,-113.1,P5,-18.98,P3,31.71,P4,6.251,P91
9524,C94,,25.0%,Max,678.1,P2,8.297,P2,-23.26,P4,20.66,P24,78.74,P4,3.078,P4,183.8,P12,115.9,P5
9524,C94,,25.0%,Min,-388.5,P59,-9.460,P3,-183.7,P12,6.315,P3,-115.8,P5,-3.553,P59,24.30,P4,1.333,P48
9524,C94,,31.3%,Max,678.1,P2,8.297,P2,-19.37,P4,20.66,P24,33.85,P4,5.318,P2,178.5,P12,138.5,P5
9524,C94,,31.3%,Min,-388.5,P59,-9.460,P3,-178.4,P12,6.315,P3,-138.4,P5,-5.126,P3,20.61,P4,21.11,P2
9524,C94,,37.5%,Max,678.1,P2,8.297,P2,-15.48,P4,20.66,P24,-9.438,P4,7.791,P2,173.3,P12,163.0,P23
9524,C94,,37.5%,Min,-388.5,P59,-9.460,P3,-173.2,P12,6.315,P3,-162.9,P23,-7.118,P3,17.00,P4,11.59,P4
9524,C94,,43.8%,Max,678.1,P2,8.297,P2,-11.58,P4,20.66,P24,-51.11,P4,10.26,P2,168.0,P12,231.3,P24
9524,C94,,43.8%,Min,-388.5,P59,-9.460,P3,-167.9,P12,6.315,P3,-231.3,P24,-9.110,P3,13.55,P4,51.82,P4
9524,C94,,50.0%,Max,678.1,P2,8.297,P2,-7.689,P4,20.66,P24,-87.21,P57,12.74,P2,162.8,P12,297.9,P24
9524,C94,,50.0%,Min,-388.5,P59,-9.460,P3,-162.6,P12,6.315,P3,-297.9,P24,-11.10,P3,10.42,P4,87.41,P57
9524,C94,,50.0%,Max,646.8,P2,3.212,P2,172.2,P33,-3.559,P57,-86.44,P57,3.716,P84,172.2,P33,301.5,P24
9524,C94,,50.0%,Min,-443.5,P59,-6.547,P3,12.21,P60,-24.20,P8,-301.5,P24,-6.387,P81,12.21,P60,86.64,P57
9524,C94,,56.3%,Max,646.8,P2,3.212,P2,177.5,P33,-3.559,P57,-37.39,P4,4.214,P2,177.5,P33,254.4,P12
9524,C94,,56.3%,Min,-443.5,P59,-6.547,P3,16.10,P60,-24.20,P8,-254.4,P12,-5.402,P3,16.10,P60,37.48,P4
9524,C94,,62.5%,Max,646.8,P2,3.212,P2,182.7,P33,-3.559,P57,18.14,P4,5.109,P2,182.8,P33,210.7,P12
9524,C94,,62.5%,Min,-443.5,P59,-6.547,P3,20.00,P60,-24.20,P8,-210.7,P12,-4.918,P3,20.00,P60,3.918,P79
9524,C94,,68.8%,Max,646.8,P2,3.212,P2,188.0,P33,-3.559,P57,75.27,P4,6.004,P2,188.0,P33,164.7,P12
9524,C94,,68.8%,Min,-443.5,P59,-6.547,P3,23.89,P60,-24.20,P8,-164.7,P12,-4.433,P3,23.89,P60,0.9469,P69
9524,C94,,75.0%,Max,646.8,P2,3.212,P2,193.2,P33,-3.559,P57,134.0,P4,6.899,P2,193.3,P33,150.5,P60
9524,C94,,75.0%,Min,-443.5,P59,-6.547,P3,27.78,P60,-24.20,P8,-150.5,P60,-3.949,P3,27.78,P60,2.161,P71
9524,C94,,75.0%,Max,636.2,P2,29.43,P2,208.1,P33,-3.490,P57,143.9,P4,24.30,P2,208.2,P33,149.3,P60
9524,C94,,75.0%,Min,-457.4,P59,-22.44,P3,32.98,P60,-24.44,P8,-148.2,P60,-15.08,P3,39.02,P60,2.761,P76
9524,C94,,81.3%,Max,636.2,P2,29.43,P2,213.3,P33,-3.490,P57,212.3,P4,23.83,P2,213.4,P33,213.2,P4
9524,C94,,81.3%,Min,-457.4,P59,-22.44,P3,36.87,P60,-24.44,P8,-133.8,P60,-17.50,P3,42.36,P60,12.91,P24
9524,C94,,87.5%,Max,636.2,P2,29.43,P2,218.6,P33,-3.490,P57,282.4,P4,23.36,P2,218.7,P33,283.0,P4
9524,C94,,87.5%,Min,-457.4,P59,-22.44,P3,40.76,P60,-24.44,P8,-117.7,P60,-19.92,P3,45.79,P60,3.983,P53
9524,C94,,93.8%,Max,636.2,P2,29.43,P2,223.8,P33,-3.490,P57,354.1,P4,22.88,P2,223.9,P33,354.5,P4
9524,C94,,93.8%,Min,-457.4,P59,-22.44,P3,44.66,P60,-24.44,P8,-100.1,P60,-22.33,P3,49.29,P60,4.458,P48
9524,C94,7588,100.0%,Max,636.2,P2,29.43,P2,229.1,P33,-3.490,P57,436.6,P21,22.41,P2,229.2,P33,436.9,P21
9524,C94,7588,100.0%,Min,-457.4,P59,-22.44,P3,48.55,P60,-24.44,P8,-80.81,P60,-24.75,P3,52.84,P60,10.39,P41
9525,C94,4794,0.0%,Max,525.4,P81,10.56,P2,15.65,P81,40.74,P24,536.9,P59,8.723,P2,284.4,P10,536.9,P59
9525,C94,4794,0.0%,Min,-569.6,P85,-28.66,P3,-284.3,P10,12.52,P3,-242.4,P81,-27.22,P3,4.202,P56,1.218,P43
9525,C94,,6.3%,Max,525.4,P81,10.56,P2,19.55,P81,40.74,P24,439.4,P59,11.68,P2,279.2,P10,439.4,P59
9525,C94,,6.3%,Min,-569.6,P85,-28.66,P3,-279.1,P10,12.52,P3,-235.1,P81,-22.67,P3,5.029,P56,12.58,P71
9525,C94,,12.5%,Max,525.4,P81,10.56,P2,23.46,P81,40.74,P24,343.5,P59,14.64,P2,273.9,P10,343.5,P59
9525,C94,,12.5%,Min,-569.6,P85,-28.66,P3,-273.8,P10,12.52,P3,-226.2,P81,-18.12,P3,7.623,P4,4.867,P18
9525,C94,,18.8%,Max,525.4,P81,10.56,P2,27.36,P81,40.74,P24,249.2,P59,17.59,P2,268.6,P10,249.3,P59
9525,C94,,18.8%,Min,-569.6,P85,-28.66,P3,-268.5,P10,12.52,P3,-215.6,P81,-13.57,P3,5.168,P55,5.041,P1
9525,C94,,25.0%,Max,525.4,P81,10.56,P2,31.26,P81,40.74,P24,156.6,P59,20.55,P2,263.4,P10,208.9,P5
9525,C94,,25.0%,Min,-569.6,P85,-28.66,P3,-263.3,P10,12.52,P3,-208.8,P5,-9.026,P3,4.151,P55,0.9287,P50
9525,C94,,25.0%,Max,585.4,P81,7.684,P81,37.76,P81,38.63,P24,140.6,P59,3.473,P80,245.9,P10,209.3,P5
9525,C94,,25.0%,Min,-659.5,P85,-9.737,P85,-245.8,P10,12.25,P3,-209.3,P5,-2.823,P83,7.079,P54,5.795,P48
9525,C94,,31.2%,Max,585.4,P81,7.684,P81,41.66,P81,38.63,P24,52.80,P59,4.983,P4,240.6,P10,230.0,P7
9525,C94,,31.2%,Min,-659.5,P85,-9.737,P85,-240.6,P10,12.25,P3,-230.0,P7,-3.272,P5,7.692,P2,3.807,P39
9525,C94,,37.5%,Max,585.4,P81,7.684,P81,45.57,P81,38.63,P24,-33.34,P59,7.215,P4,235.3,P10,259.1,P6
9525,C94,,37.5%,Min,-659.5,P85,-9.737,P85,-235.3,P10,12.25,P3,-259.1,P6,-5.090,P5,5.327,P2,33.58,P59
9525,C94,,43.7%,Max,585.4,P81,7.684,P81,49.47,P81,38.63,P24,-100.5,P4,9.519,P61,230.1,P10,305.2,P31
9525,C94,,43.7%,Min,-659.5,P85,-9.737,P85,-230.0,P10,12.25,P3,-305.2,P31,-6.908,P5,5.297,P2,101.0,P4
9525,C94,,50.0%,Max,585.4,P81,7.684,P81,53.37,P81,38.63,P24,-126.2,P80,13.55,P61,224.8,P10,381.7,P8
9525,C94,,50.0%,Min,-659.5,P85,-9.737,P85,-224.7,P10,12.25,P3,-381.6,P8,-9.314,P81,7.629,P2,126.5,P80
9525,C94,,50.0%,Max,638.9,P81,7.899,P2,294.8,P7,-7.339,P2,-118.7,P80,13.13,P2,294.8,P7,385.4,P8
9525,C94,,50.0%,Min,-704.8,P85,-5.493,P3,-35.69,P58,-36.92,P24,-385.4,P8,-9.131,P3,14.99,P34,118.7,P80
9525,C94,,56.2%,Max,638.9,P81,7.899,P2,300.0,P7,-7.339,P2,-27.49,P80,10.30,P2,300.0,P7,312.3,P9
9525,C94,,56.2%,Min,-704.8,P85,-5.493,P3,-31.78,P58,-36.92,P24,-312.2,P9,-7.307,P3,18.53,P65,27.55,P80
9525,C94,,62.5%,Max,638.9,P81,7.899,P2,305.3,P7,-7.339,P2,65.38,P81,7.482,P2,305.3,P7,258.0,P10
9525,C94,,62.5%,Min,-704.8,P85,-5.493,P3,-27.88,P58,-36.92,P24,-258.0,P10,-5.483,P3,14.67,P65,8.290,P2
9525,C94,,68.7%,Max,638.9,P81,7.899,P2,310.6,P7,-7.339,P2,160.0,P81,5.139,P4,310.6,P7,250.1,P58
9525,C94,,68.7%,Min,-704.8,P85,-5.493,P3,-23.98,P58,-36.92,P24,-250.1,P58,-4.137,P5,10.85,P65,10.11,P20
9525,C94,,75.0%,Max,638.9,P81,7.899,P2,315.8,P7,-7.339,P2,256.2,P81,3.048,P4,315.9,P7,259.3,P58
9525,C94,,75.0%,Min,-704.8,P85,-5.493,P3,-20.07,P58,-36.92,P24,-259.3,P58,-3.044,P5,7.105,P65,11.20,P68
9525,C94,,75.0%,Max,638.3,P80,76.28,P60,337.0,P7,-9.430,P2,273.1,P81,40.45,P60,341.1,P7,274.5,P81
9525,C94,,75.0%,Min,-661.8,P85,-67.90,P5,-12.06,P58,-41.81,P24,-259.6,P58,-36.20,P5,57.13,P35,12.64,P67
9525,C94,,81.2%,Max,638.3,P80,76.28,P60,342.2,P7,-9.430,P2,375.1,P7,47.02,P4,346.3,P7,375.1,P7
9525,C94,,81.2%,Min,-661.8,P85,-67.90,P5,-8.156,P58,-41.81,P24,-263.8,P58,-42.01,P5,59.92,P35,3.606,P47
9525,C94,,87.5%,Max,638.3,P80,76.28,P60,347.5,P7,-9.430,P2,518.1,P7,57.01,P4,351.5,P7,518.6,P7
9525,C94,,87.5%,Min,-661.8,P85,-67.90,P5,-4.253,P58,-41.81,P24,-266.4,P58,-47.81,P5,60.61,P63,10.05,P10
9525,C94,,93.7%,Max,638.3,P80,76.28,P60,352.8,P7,-9.430,P2,663.3,P7,67.00,P4,356.7,P7,664.8,P7
9525,C94,,93.7%,Min,-661.8,P85,-67.90,P5,-0.3496,P58,-41.81,P24,-267.3,P58,-54.43,P60,61.26,P63,21.04,P93
9525,C94,4809,100.0%,Max,638.3,P80,76.28,P60,358.1,P7,-9.430,P2,810.6,P7,79.41,P81,362.0,P7,813.4,P7
9525,C94,4809,100.0%,Min,-661.8,P85,-67.90,P5,3.554,P58,-41.81,P24,-266.7,P58,-86.05,P60,62.14,P63,35.06,P90
9533,C94,5097,0.0%,Max,197.8,P4,4.726,P2,-39.97,P46,1.552,P22,166.3,P8,4.399,P2,89.75,P8,166.3,P8
9533,C94,5097,0.0%,Min,-158.1,P5,-4.707,P3,-89.75,P8,0.4011,P81,73.73,P3,-4.459,P3,39.99,P46,73.82,P46
9533,C94,,8.7%,Max,197.8,P4,4.726,P2,-38.04,P46,1.552,P22,126.0,P8,4.329,P2,87.15,P8,126.0,P8
9533,C94,,8.7%,Min,-158.1,P5,-4.707,P3,-87.14,P8,0.4011,P81,53.97,P3,-4.398,P3,38.06,P46,54.15,P3
9533,C94,,17.5%,Max,197.8,P4,4.726,P2,-36.11,P46,1.552,P22,86.93,P8,4.259,P2,84.54,P8,86.93,P8
9533,C94,,17.5%,Min,-158.1,P5,-4.707,P3,-84.54,P8,0.4011,P81,35.10,P3,-4.337,P3,36.13,P46,35.37,P3
9533,C94,,26.2%,Max,197.8,P4,4.726,P2,-34.18,P46,1.552,P22,49.01,P8,4.189,P2,81.93,P8,49.01,P8
9533,C94,,26.2%,Min,-158.1,P5,-4.707,P3,-81.93,P8,0.4011,P81,17.11,P3,-4.276,P3,34.20,P46,17.64,P3
9533,C94,,34.9%,Max,197.8,P4,4.726,P2,-32.25,P46,1.552,P22,18.12,P2,4.119,P2,79.33,P8,18.58,P2
9533,C94,,34.9%,Min,-158.1,P5,-4.707,P3,-79.33,P8,0.4011,P81,-0.004455,P3,-4.215,P3,32.27,P46,4.215,P3
9533,C94,,34.9%,Max,198.7,P4,3.093,P4,-9.113,P4,-0.5407,P4,3.499,P2,2.665,P4,25.25,P6,14.78,P6
9533,C94,,34.9%,Min,-162.8,P5,-3.265,P5,-25.24,P6,-1.383,P6,-14.78,P6,-2.922,P5,9.624,P4,1.349,P93
9533,C94,,43.6%,Max,198.7,P4,3.093,P4,-7.183,P4,-0.5407,P4,-1.909,P4,2.756,P4,22.64,P6,25.69,P6
9533,C94,,43.6%,Min,-162.8,P5,-3.265,P5,-22.64,P6,-1.383,P6,-25.69,P6,-2.935,P5,7.821,P4,3.353,P4
9533,C94,,52.4%,Max,198.7,P4,3.093,P4,-5.253,P4,-0.5407,P4,-5.770,P4,2.848,P4,20.03,P6,35.41,P6
9533,C94,,52.4%,Min,-162.8,P5,-3.265,P5,-20.03,P6,-1.383,P6,-35.41,P6,-2.949,P5,6.096,P4,6.434,P4
9533,C94,,61.1%,Max,198.7,P4,3.093,P4,-3.323,P4,-0.5407,P4,-8.751,P4,2.939,P4,17.43,P6,43.94,P6
9533,C94,,61.1%,Min,-162.8,P5,-3.265,P5,-17.43,P6,-1.383,P6,-43.94,P6,-2.962,P5,4.540,P4,9.231,P4
9533,C94,,69.8%,Max,198.7,P4,3.093,P4,-1.393,P4,-0.5407,P4,-10.85,P4,3.030,P4,14.82,P6,51.29,P6
9533,C94,,69.8%,Min,-162.8,P5,-3.265,P5,-14.82,P6,-1.383,P6,-51.29,P6,-2.975,P5,3.392,P4,11.27,P4
9533,C94,,69.8%,Max,196.7,P4,5.532,P2,-2.143,P4,0.6368,P4,-13.33,P4,4.239,P2,33.61,P5,49.50,P6
9533,C94,,69.8%,Min,-162.9,P5,-5.121,P3,-33.39,P5,-0.3933,P5,-49.50,P6,-3.999,P3,4.750,P4,13.75,P4
9533,C94,,77.4%,Max,196.7,P4,5.532,P2,-0.4741,P4,0.6368,P4,-19.43,P4,4.198,P2,31.95,P5,56.01,P6
9533,C94,,77.4%,Min,-162.9,P5,-5.121,P3,-31.72,P5,-0.3933,P5,-56.01,P6,-4.120,P3,4.265,P4,19.70,P4
9533,C94,,84.9%,Max,196.7,P4,5.532,P2,1.195,P4,0.6368,P4,-24.88,P4,4.156,P2,30.30,P5,61.79,P33
9533,C94,,84.9%,Min,-162.9,P5,-5.121,P3,-30.06,P5,-0.3933,P5,-61.79,P33,-4.241,P3,4.404,P4,25.08,P4
9533,C94,,92.5%,Max,196.7,P4,5.532,P2,2.864,P4,0.6368,P4,-29.67,P4,4.115,P2,28.64,P5,67.28,P33
9533,C94,,92.5%,Min,-162.9,P5,-5.121,P3,-28.39,P5,-0.3933,P5,-67.28,P33,-4.362,P3,5.116,P4,29.82,P4
9533,C94,4891,100.0%,Max,196.7,P4,5.532,P2,4.533,P4,0.6368,P4,-33.31,P2,4.074,P2,26.99,P5,71.89,P33
9533,C94,4891,100.0%,Min,-162.9,P5,-5.121,P3,-26.72,P5,-0.3933,P5,-71.89,P33,-4.483,P3,5.620,P2,33.56,P2
9534,C94,4890,0.0%,Max,193.5,P4,5.015,P2,10.30,P4,0.7280,P24,-32.00,P4,3.596,P2,12.99,P5,68.46,P32
9534,C94,4890,0.0%,Min,-162.6,P5,-5.709,P3,-12.06,P5,0.009975,P5,-68.46,P32,-4.187,P3,0.6174,P48,32.13,P4
9534,C94,,6.3%,Max,193.5,P4,5.015,P2,11.68,P4,0.7280,P24,-34.61,P4,3.514,P2,12.39,P4,71.50,P6
9534,C94,,6.3%,Min,-162.6,P5,-5.709,P3,-10.68,P5,0.009975,P5,-71.50,P6,-3.878,P3,1.929,P48,34.73,P4
9534,C94,,12.5%,Max,193.5,P4,5.015,P2,13.06,P4,0.7280,P24,-36.76,P4,3.432,P2,13.70,P4,74.10,P6
9534,C94,,12.5%,Min,-162.6,P5,-5.709,P3,-9.296,P5,0.009975,P5,-74.10,P6,-3.569,P3,2.945,P20,36.87,P4
9534,C94,,18.8%,Max,193.5,P4,5.015,P2,14.44,P4,0.7280,P24,-38.47,P4,3.349,P2,15.02,P4,76.10,P6
9534,C94,,18.8%,Min,-162.6,P5,-5.709,P3,-7.914,P5,0.009975,P5,-76.10,P6,-3.260,P3,1.246,P21,38.57,P4
9534,C94,,25.0%,Max,193.5,P4,5.015,P2,15.83,P4,0.7280,P24,-38.44,P58,3.267,P2,16.35,P4,77.48,P6
9534,C94,,25.0%,Min,-162.6,P5,-5.709,P3,-6.531,P5,0.009975,P5,-77.48,P6,-2.951,P3,0.3788,P7,38.44,P58
9534,C94,,25.0%,Max,198.6,P4,3.744,P2,30.80,P4,0.1547,P4,-35.74,P58,2.240,P2,30.88,P4,75.04,P6
9534,C94,,25.0%,Min,-165.0,P5,-4.762,P3,7.988,P5,-0.7985,P5,-75.03,P6,-2.970,P3,8.597,P5,35.74,P58
9534,C94,,31.3%,Max,198.6,P4,3.744,P2,32.19,P4,0.1547,P4,-26.30,P4,2.492,P2,32.26,P4,65.36,P6
9534,C94,,31.3%,Min,-165.0,P5,-4.762,P3,9.371,P5,-0.7985,P5,-65.36,P6,-2.891,P3,9.895,P5,26.34,P4
9534,C94,,37.5%,Max,198.6,P4,3.744,P2,33.57,P4,0.1547,P4,-16.32,P4,2.744,P2,33.64,P4,55.07,P6
9534,C94,,37.5%,Min,-165.0,P5,-4.762,P3,10.75,P5,-0.7985,P5,-55.07,P6,-2.811,P3,11.21,P5,16.41,P4
9534,C94,,43.8%,Max,198.6,P4,3.744,P2,35.11,P32,0.1547,P4,-5.896,P4,2.996,P2,35.12,P32,44.18,P6
9534,C94,,43.8%,Min,-165.0,P5,-4.762,P3,12.14,P5,-0.7985,P5,-44.18,P6,-2.731,P3,12.54,P5,6.206,P4
9534,C94,,50.0%,Max,198.6,P4,3.744,P2,36.98,P32,0.1547,P4,4.982,P4,3.249,P2,36.99,P32,32.68,P6
9534,C94,,50.0%,Min,-165.0,P5,-4.762,P3,13.52,P5,-0.7985,P5,-32.67,P6,-2.651,P3,13.89,P5,5.431,P4
9534,C94,,50.0%,Max,190.6,P4,6.558,P4,49.46,P24,0.6143,P4,7.521,P4,4.366,P4,49.47,P24,31.32,P5
9534,C94,,50.0%,Min,-154.2,P5,-7.147,P5,12.09,P5,0.01575,P5,-30.93,P5,-4.874,P5,14.04,P5,4.881,P2
9534,C94,,56.3%,Max,190.6,P4,6.558,P4,51.32,P24,0.6143,P4,13.32,P4,4.389,P4,51.33,P24,20.65,P5
9534,C94,,56.3%,Min,-154.2,P5,-7.147,P5,13.47,P5,0.01575,P5,-20.10,P5,-4.705,P5,15.25,P5,0.2090,P45
9534,C94,,62.5%,Max,190.6,P4,6.558,P4,53.19,P24,0.6143,P4,19.56,P4,4.413,P4,53.20,P24,20.05,P4
9534,C94,,62.5%,Min,-154.2,P5,-7.147,P5,14.85,P5,0.01575,P5,-8.821,P5,-4.536,P5,16.48,P5,3.790,P6
9534,C94,,68.8%,Max,190.6,P4,6.558,P4,55.06,P24,0.6143,P4,26.26,P4,4.436,P4,55.06,P24,26.63,P4
9534,C94,,68.8%,Min,-154.2,P5,-7.147,P5,16.23,P5,0.01575,P5,2.913,P5,-4.367,P5,17.74,P5,5.249,P5
9534,C94,,75.0%,Max,190.6,P4,6.558,P4,56.92,P24,0.6143,P4,40.90,P8,4.460,P4,56.93,P24,40.90,P8
9534,C94,,75.0%,Min,-154.2,P5,-7.147,P5,17.62,P5,0.01575,P5,13.04,P3,-4.198,P5,19.01,P5,13.62,P3
9534,C94,,75.0%,Max,190.7,P4,7.944,P2,98.23,P24,-0.1848,P81,55.50,P8,4.785,P2,98.24,P24,55.51,P8
9534,C94,,75.0%,Min,-152.8,P5,-9.192,P3,36.63,P5,-1.003,P22,19.44,P3,-5.616,P3,37.67,P5,20.24,P3
9534,C94,,81.3%,Max,190.7,P4,7.944,P2,100.1,P24,-0.1848,P81,87.86,P24,5.184,P2,100.1,P24,87.86,P24
9534,C94,,81.3%,Min,-152.8,P5,-9.192,P3,38.02,P5,-1.003,P22,32.78,P3,-5.608,P3,39.01,P5,33.26,P3
9534,C94,,87.5%,Max,190.7,P4,7.944,P2,102.0,P24,-0.1848,P81,120.8,P24,5.583,P2,102.0,P24,120.8,P24
9534,C94,,87.5%,Min,-152.8,P5,-9.192,P3,39.40,P5,-1.003,P22,46.58,P3,-5.600,P3,40.36,P5,46.91,P3
9534,C94,,93.8%,Max,190.7,P4,7.944,P2,103.8,P24,-0.1848,P81,154.4,P24,5.982,P2,103.8,P24,154.4,P24
9534,C94,,93.8%,Min,-152.8,P5,-9.192,P3,40.78,P5,-1.003,P22,60.82,P3,-5.592,P3,41.71,P5,61.08,P3
9534,C94,5107,100.0%,Max,190.7,P4,7.944,P2,105.7,P24,-0.1848,P81,188.6,P24,6.381,P2,105.7,P24,188.6,P24
9534,C94,5107,100.0%,Min,-152.8,P5,-9.192,P3,42.16,P5,-1.003,P22,75.52,P3,-5.583,P3,43.06,P5,75.73,P3
9535,C94,7482,0.0%,Max,551.9,P2,26.27,P2,-29.65,P4,-6.433,P2,372.9,P4,25.07,P2,174.5,P22,373.2,P4
9535,C94,7482,0.0%,Min,-332.4,P3,-21.61,P3,-174.5,P22,-19.67,P33,-73.62,P5,-20.34,P3,33.01,P4,54.65,P3
9535,C94,,4.7%,Max,551.9,P2,26.27,P2,-26.74,P4,-6.433,P2,323.8,P4,20.56,P2,170.5,P22,324.0,P4
9535,C94,,4.7%,Min,-332.4,P3,-21.61,P3,-170.5,P22,-19.67,P33,-82.37,P5,-17.27,P3,30.41,P4,40.20,P69
9535,C94,,9.4%,Max,551.9,P2,26.27,P2,-23.82,P4,-6.433,P2,275.6,P4,16.05,P2,166.6,P22,275.8,P4
9535,C94,,9.4%,Min,-332.4,P3,-21.61,P3,-166.6,P22,-19.67,P33,-90.21,P5,-14.21,P3,27.88,P4,21.60,P69
9535,C94,,14.1%,Max,551.9,P2,26.27,P2,-20.90,P4,-6.433,P2,228.3,P4,11.54,P2,162.6,P22,228.4,P4
9535,C94,,14.1%,Min,-332.4,P3,-21.61,P3,-162.6,P22,-19.67,P33,-97.15,P5,-11.14,P3,25.44,P4,4.235,P69
9535,C94,,18.8%,Max,551.9,P2,26.27,P2,-17.98,P4,-6.433,P2,181.9,P4,7.033,P2,158.7,P22,182.0,P4
9535,C94,,18.8%,Min,-332.4,P3,-21.61,P3,-158.7,P22,-19.67,P33,-103.2,P5,-8.077,P3,23.10,P4,3.398,P93
9535,C94,,18.8%,Max,532.6,P2,3.867,P2,-8.411,P4,-3.691,P2,174.7,P4,3.504,P4,139.9,P5,174.8,P4
9535,C94,,18.8%,Min,-300.5,P3,-4.435,P3,-139.9,P5,-13.54,P33,-104.8,P5,-3.406,P5,8.880,P4,0.5157,P93
9535,C94,,23.5%,Max,532.6,P2,3.867,P2,-5.493,P4,-3.691,P2,131.9,P4,3.231,P2,137.0,P5,131.9,P4
9535,C94,,23.5%,Min,-300.5,P3,-4.435,P3,-137.0,P5,-13.54,P33,-107.0,P5,-2.957,P3,6.189,P4,1.545,P32
9535,C94,,28.2%,Max,532.6,P2,3.867,P2,-2.576,P4,-3.691,P2,89.94,P4,3.117,P2,134.1,P5,108.3,P5
9535,C94,,28.2%,Min,-300.5,P3,-4.435,P3,-134.0,P5,-13.54,P33,-108.3,P5,-2.667,P3,3.842,P4,0.2116,P77
9535,C94,,32.9%,Max,532.6,P2,3.867,P2,0.3415,P4,-3.691,P2,48.90,P4,3.003,P2,131.2,P5,108.7,P5
9535,C94,,32.9%,Min,-300.5,P3,-4.435,P3,-131.1,P5,-13.54,P33,-108.7,P5,-2.377,P3,2.871,P4,10.84,P46
9535,C94,,37.6%,Max,532.6,P2,3.867,P2,3.259,P4,-3.691,P2,8.768,P4,2.889,P2,128.2,P5,108.2,P5
9535,C94,,37.6%,Min,-300.5,P3,-4.435,P3,-128.2,P5,-13.54,P33,-108.2,P5,-2.087,P3,4.329,P4,3.220,P2
9535,C94,,37.6%,Max,535.3,P2,3.823,P2,26.26,P4,7.166,P22,3.203,P4,2.769,P4,105.3,P5,113.0,P33
9535,C94,,37.6%,Min,-285.8,P3,-6.445,P3,-105.1,P5,0.8660,P3,-113.0,P33,-3.077,P5,15.11,P69,4.234,P4
9535,C94,,42.3%,Max,535.3,P2,3.823,P2,29.18,P4,7.166,P22,-15.94,P4,3.291,P4,102.4,P5,130.6,P33
9535,C94,,42.3%,Min,-285.8,P3,-6.445,P3,-102.2,P5,0.8660,P3,-130.6,P33,-2.787,P5,12.21,P69,16.27,P4
9535,C94,,47.0%,Max,535.3,P2,3.823,P2,32.10,P4,7.166,P22,-34.17,P4,3.996,P2,99.47,P5,147.1,P33
9535,C94,,47.0%,Min,-285.8,P3,-6.445,P3,-99.27,P5,0.8660,P3,-147.1,P33,-2.679,P3,9.308,P69,34.39,P4
9535,C94,,51.7%,Max,535.3,P2,3.823,P2,35.02,P4,7.166,P22,-51.51,P4,4.874,P2,96.55,P5,162.3,P33
9535,C94,,51.7%,Min,-285.8,P3,-6.445,P3,-96.35,P5,0.8660,P3,-162.3,P33,-2.745,P3,6.427,P69,51.69,P4
9535,C94,,56.4%,Max,535.3,P2,3.823,P2,37.93,P4,7.166,P22,-67.93,P4,5.753,P2,93.64,P5,179.2,P23
9535,C94,,56.4%,Min,-285.8,P3,-6.445,P3,-93.44,P5,0.8660,P3,-179.1,P23,-2.811,P3,3.605,P69,68.11,P4
9535,C94,,56.4%,Max,540.8,P2,5.164,P2,121.8,P33,9.188,P2,-62.58,P4,3.563,P2,121.8,P33,174.4,P23
9535,C94,,56.4%,Min,-274.2,P3,-4.393,P3,-7.074,P5,-0.6624,P3,-174.3,P23,-2.307,P3,4.476,P3,62.66,P4
9535,C94,,61.8%,Max,540.8,P2,5.164,P2,126.4,P33,9.188,P2,-19.19,P4,3.691,P2,126.4,P33,135.3,P23
9535,C94,,61.8%,Min,-274.2,P3,-4.393,P3,-3.689,P5,-0.6624,P3,-135.3,P23,-2.712,P3,4.582,P5,19.42,P4
9535,C94,,67.3%,Max,540.8,P2,5.164,P2,130.9,P33,9.188,P2,25.41,P4,3.818,P2,130.9,P33,123.2,P5
9535,C94,,67.3%,Min,-274.2,P3,-4.393,P3,-0.3038,P5,-0.6624,P3,-123.2,P5,-3.117,P3,2.735,P5,18.51,P2
9535,C94,,72.7%,Max,540.8,P2,5.164,P2,135.5,P33,9.188,P2,71.22,P4,3.946,P2,135.5,P33,122.5,P5
9535,C94,,72.7%,Min,-274.2,P3,-4.393,P3,3.081,P5,-0.6624,P3,-122.5,P5,-3.521,P3,4.109,P5,0.9281,P68
9535,C94,,78.2%,Max,540.8,P2,5.164,P2,140.1,P33,9.188,P2,118.3,P4,4.074,P2,140.1,P33,120.6,P5
9535,C94,,78.2%,Min,-274.2,P3,-4.393,P3,6.466,P5,-0.6624,P3,-120.6,P5,-3.926,P3,7.014,P5,0.5796,P85
9535,C94,,78.2%,Max,557.6,P2,3.487,P2,167.2,P33,14.29,P22,125.2,P4,3.479,P2,167.3,P33,125.2,P4
9535,C94,,78.2%,Min,-269.5,P3,-11.82,P3,20.31,P5,1.427,P3,-119.6,P5,-7.078,P3,22.80,P5,0.3572,P86
9535,C94,,83.6%,Max,557.6,P2,3.487,P2,171.8,P33,14.29,P22,177.8,P4,5.252,P2,171.9,P33,177.9,P4
9535,C94,,83.6%,Min,-269.5,P3,-11.82,P3,23.70,P5,1.427,P3,-111.6,P5,-5.853,P3,25.86,P5,3.553,P46
9535,C94,,89.1%,Max,557.6,P2,3.487,P2,176.4,P33,14.29,P22,231.7,P4,7.026,P2,176.4,P33,231.8,P4
9535,C94,,89.1%,Min,-269.5,P3,-11.82,P3,27.08,P5,1.427,P3,-102.5,P5,-4.629,P3,28.99,P5,26.80,P46
9535,C94,,94.5%,Max,557.6,P2,3.487,P2,180.9,P33,14.29,P22,286.8,P4,8.799,P2,181.0,P33,286.9,P4
9535,C94,,94.5%,Min,-269.5,P3,-11.82,P3,30.47,P5,1.427,P3,-92.09,P5,-3.404,P3,32.18,P5,51.33,P46
9535,C94,7481,100.0%,Max,557.6,P2,3.487,P2,185.5,P33,14.29,P22,343.2,P4,10.57,P2,185.6,P33,343.3,P4
9535,C94,7481,100.0%,Min,-269.5,P3,-11.82,P3,33.85,P5,1.427,P3,-80.50,P5,-2.180,P3,35.40,P5,53.92,P3
9536,C94,7481,0.0%,Max,577.6,P2,31.42,P2,-65.10,P79,-6.199,P2,419.8,P24,33.80,P2,242.8,P8,420.0,P24
9536,C94,7481,0.0%,Min,-316.4,P3,-19.00,P3,-242.7,P8,-20.41,P23,66.17,P5,-19.73,P3,65.66,P79,66.59,P5
9536,C94,,6.2%,Max,577.6,P2,31.42,P2,-61.26,P79,-6.199,P2,324.5,P12,28.16,P2,237.6,P8,324.6,P12
9536,C94,,6.2%,Min,-316.4,P3,-19.00,P3,-237.5,P8,-20.41,P23,30.01,P5,-19.15,P3,61.86,P79,31.11,P5
9536,C94,,12.3%,Max,577.6,P2,31.42,P2,-57.43,P79,-6.199,P2,232.6,P12,22.52,P2,232.4,P8,232.6,P12
9536,C94,,12.3%,Min,-316.4,P3,-19.00,P3,-232.3,P8,-20.41,P23,-4.594,P5,-18.57,P3,58.06,P79,10.11,P5
9536,C94,,18.5%,Max,577.6,P2,31.42,P2,-53.59,P79,-6.199,P2,162.1,P4,16.88,P2,227.3,P8,162.4,P4
9536,C94,,18.5%,Min,-316.4,P3,-19.00,P3,-227.1,P8,-20.41,P23,-37.63,P5,-17.99,P3,54.27,P79,2.497,P55
9536,C94,,24.6%,Max,577.6,P2,31.42,P2,-49.76,P79,-6.199,P2,102.5,P4,11.24,P2,222.1,P8,102.6,P4
9536,C94,,24.6%,Min,-316.4,P3,-19.00,P3,-222.0,P8,-20.41,P23,-69.11,P5,-17.41,P3,50.49,P79,1.804,P66
9536,C94,,24.6%,Max,515.3,P2,8.243,P2,-42.38,P79,-5.045,P2,93.29,P4,4.033,P4,201.9,P8,93.38,P4
9536,C94,,24.6%,Min,-292.4,P3,-7.325,P3,-201.9,P8,-16.78,P23,-74.65,P5,-3.281,P5,42.41,P79,0.6332,P30
9536,C94,,30.8%,Max,515.3,P2,8.243,P2,-38.54,P79,-5.045,P2,49.00,P4,5.042,P2,196.7,P8,110.8,P5
9536,C94,,30.8%,Min,-292.4,P3,-7.325,P3,-196.7,P8,-16.78,P23,-110.7,P5,-4.664,P3,38.58,P79,9.084,P60
9536,C94,,36.9%,Max,515.3,P2,8.243,P2,-34.71,P79,-5.045,P2,6.266,P4,6.361,P2,191.5,P8,145.3,P5
9536,C94,,36.9%,Min,-292.4,P3,-7.325,P3,-191.5,P8,-16.78,P23,-145.2,P5,-6.357,P3,34.75,P79,8.425,P4
9536,C94,,43.1%,Max,515.3,P2,8.243,P2,-30.88,P79,-5.045,P2,-34.90,P4,7.681,P2,186.4,P8,215.8,P8
9536,C94,,43.1%,Min,-292.4,P3,-7.325,P3,-186.4,P8,-16.78,P23,-215.8,P8,-8.050,P3,30.92,P79,35.49,P4
9536,C94,,49.2%,Max,515.3,P2,8.243,P2,-27.04,P79,-5.045,P2,-74.51,P4,9.000,P2,181.2,P8,290.7,P8
9536,C94,,49.2%,Min,-292.4,P3,-7.325,P3,-181.2,P8,-16.78,P23,-290.7,P8,-9.744,P3,27.10,P79,74.86,P4
9536,C94,,49.2%,Max,474.1,P2,6.866,P2,145.5,P7,19.48,P12,-73.94,P79,6.290,P2,145.6,P7,294.7,P8
9536,C94,,49.2%,Min,-281.9,P3,-3.985,P3,6.699,P84,-1.809,P57,-294.7,P8,-3.107,P3,6.702,P84,74.02,P79
9536,C94,,55.6%,Max,474.1,P2,6.866,P2,150.9,P7,19.48,P12,-30.82,P79,5.707,P2,150.9,P7,249.5,P9
9536,C94,,55.6%,Min,-281.9,P3,-3.985,P3,10.65,P84,-1.809,P57,-249.5,P9,-3.734,P3,10.65,P84,30.91,P79
9536,C94,,61.9%,Max,474.1,P2,6.866,P2,156.2,P7,19.48,P12,13.96,P79,5.125,P2,156.2,P7,211.4,P9
9536,C94,,61.9%,Min,-281.9,P3,-3.985,P3,14.60,P84,-1.809,P57,-211.4,P9,-4.361,P3,14.61,P84,1.952,P54
9536,C94,,68.3%,Max,474.1,P2,6.866,P2,161.5,P7,19.48,P12,60.40,P79,4.542,P2,161.6,P7,171.0,P9
9536,C94,,68.3%,Min,-281.9,P3,-3.985,P3,18.56,P84,-1.809,P57,-171.0,P9,-4.988,P3,18.56,P84,0.7922,P43
9536,C94,,74.6%,Max,474.1,P2,6.866,P2,166.9,P7,19.48,P12,108.5,P79,3.959,P2,166.9,P7,146.7,P84
9536,C94,,74.6%,Min,-281.9,P3,-3.985,P3,22.51,P84,-1.809,P57,-146.6,P84,-5.615,P3,22.51,P84,1.939,P47
9536,C94,,74.6%,Max,444.1,P2,12.18,P57,182.7,P6,19.62,P12,116.2,P79,7.325,P57,182.7,P6,144.6,P84
9536,C94,,74.6%,Min,-273.6,P3,-7.310,P5,28.08,P84,-2.467,P57,-144.6,P84,-5.056,P5,28.31,P84,1.128,P30
9536,C94,,81.0%,Max,444.1,P2,12.18,P57,188.0,P6,19.62,P12,168.5,P79,5.334,P4,188.0,P6,168.5,P79
9536,C94,,81.0%,Min,-273.6,P3,-7.310,P5,32.03,P84,-2.467,P57,-132.0,P84,-6.419,P5,32.23,P84,2.480,P14
9536,C94,,87.3%,Max,444.1,P2,12.18,P57,193.3,P6,19.62,P12,222.7,P7,6.062,P4,193.4,P6,222.7,P7
9536,C94,,87.3%,Min,-273.6,P3,-7.310,P5,35.99,P84,-2.467,P57,-117.7,P84,-7.782,P5,36.16,P84,1.737,P34
9536,C94,,93.7%,Max,444.1,P2,12.18,P57,198.7,P6,19.62,P12,304.3,P7,6.790,P4,198.7,P6,304.3,P7
9536,C94,,93.7%,Min,-273.6,P3,-7.310,P5,39.94,P84,-2.467,P57,-101.8,P84,-9.146,P5,40.10,P84,1.958,P37
9536,C94,7477,100.0%,Max,444.1,P2,12.18,P57,204.0,P6,19.62,P12,388.1,P7,7.518,P4,204.0,P6,388.1,P7
9536,C94,7477,100.0%,Min,-273.6,P3,-7.310,P5,43.89,P84,-2.467,P57,-84.17,P84,-13.13,P57,44.04,P84,4.904,P63
9537,C94,7477,0.0%,Max,381.9,P2,16.20,P2,28.29,P79,-25.35,P57,357.4,P92,17.52,P2,179.0,P9,357.4,P92
9537,C94,7477,0.0%,Min,-263.5,P3,-2.524,P57,-178.7,P9,-74.09,P8,-235.8,P79,-1.869,P3,5.791,P74,3.349,P51
9537,C94,,6.3%,Max,381.9,P2,16.20,P2,32.16,P79,-25.35,P57,296.1,P92,13.72,P2,173.8,P9,296.1,P92
9537,C94,,6.3%,Min,-263.5,P3,-2.524,P57,-173.4,P9,-74.09,P8,-223.3,P79,-3.811,P3,4.308,P74,7.619,P46
9537,C94,,12.5%,Max,381.9,P2,16.20,P2,36.03,P79,-25.35,P57,236.3,P92,9.915,P2,168.6,P9,236.3,P92
9537,C94,,12.5%,Min,-263.5,P3,-2.524,P57,-168.2,P9,-74.09,P8,-209.3,P79,-5.752,P3,4.169,P75,3.570,P48
9537,C94,,18.8%,Max,381.9,P2,16.20,P2,39.90,P79,-25.35,P57,178.1,P92,6.111,P2,163.4,P9,193.7,P79
9537,C94,,18.8%,Min,-263.5,P3,-2.524,P57,-163.0,P9,-74.09,P8,-193.7,P79,-7.694,P3,4.871,P70,1.028,P66
9537,C94,,25.0%,Max,381.9,P2,16.20,P2,43.77,P79,-25.35,P57,121.5,P92,3.200,P57,158.2,P9,176.5,P79
9537,C94,,25.0%,Min,-263.5,P3,-2.524,P57,-157.8,P9,-74.09,P8,-176.5,P79,-9.635,P3,2.264,P43,3.441,P38
9537,C94,,25.0%,Max,334.2,P2,1.211,P2,69.80,P79,-9.885,P57,111.7,P92,1.034,P2,109.3,P92,175.5,P79
9537,C94,,25.0%,Min,-254.5,P3,-0.6516,P3,-109.3,P92,-30.97,P8,-175.5,P79,-0.9452,P3,0.3831,P51,2.358,P13
9537,C94,,31.3%,Max,334.2,P2,1.211,P2,73.67,P79,-9.885,P57,67.59,P92,1.194,P2,105.4,P92,160.3,P7
9537,C94,,31.3%,Min,-254.5,P3,-0.6516,P3,-105.4,P92,-30.97,P8,-160.3,P7,-1.336,P3,2.488,P52,0.8789,P9
9537,C94,,37.5%,Max,334.2,P2,1.211,P2,77.54,P79,-9.885,P57,26.09,P83,1.355,P2,101.5,P92,145.4,P7
9537,C94,,37.5%,Min,-254.5,P3,-0.6516,P3,-101.5,P92,-30.97,P8,-145.4,P7,-1.727,P3,0.7279,P31,3.312,P64
9537,C94,,43.8%,Max,334.2,P2,1.211,P2,81.41,P79,-9.885,P57,-9.048,P82,1.516,P2,97.65,P92,128.3,P7
9537,C94,,43.8%,Min,-254.5,P3,-0.6516,P3,-97.65,P92,-30.97,P8,-128.3,P7,-2.117,P3,1.082,P67,9.084,P82
9537,C94,,50.0%,Max,334.2,P2,1.211,P2,85.29,P79,-9.885,P57,-36.08,P58,1.676,P2,93.78,P92,120.1,P33
9537,C94,,50.0%,Min,-254.5,P3,-0.6516,P3,-93.78,P92,-30.97,P8,-120.1,P33,-2.508,P3,0.4491,P48,36.10,P58
9537,C94,,50.0%,Max,299.9,P4,1.134,P2,118.7,P7,29.11,P25,-33.18,P54,1.104,P2,118.7,P7,117.9,P33
9537,C94,,50.0%,Min,-244.4,P5,-0.5299,P3,-63.90,P92,10.13,P90,-117.9,P33,-1.026,P3,1.126,P35,33.18,P54
9537,C94,,56.2%,Max,299.9,P4,1.134,P2,124.0,P7,29.11,P25,10.98,P55,1.125,P2,124.0,P7,107.8,P20
9537,C94,,56.2%,Min,-244.4,P5,-0.5299,P3,-60.03,P92,10.13,P90,-107.8,P20,-1.295,P3,0.4145,P9,4.845,P43
9537,C94,,62.5%,Max,299.9,P4,1.134,P2,129.2,P7,29.11,P25,57.21,P55,1.146,P2,129.2,P7,108.6,P92
9537,C94,,62.5%,Min,-244.4,P5,-0.5299,P3,-56.16,P92,10.13,P90,-108.6,P92,-1.565,P3,0.3960,P36,0.5277,P7
9537,C94,,68.7%,Max,299.9,P4,1.134,P2,134.4,P7,29.11,P25,107.8,P79,1.167,P2,134.4,P7,130.9,P92
9537,C94,,68.7%,Min,-244.4,P5,-0.5299,P3,-52.29,P92,10.13,P90,-130.9,P92,-1.834,P3,0.1393,P90,0.6161,P52
9537,C94,,75.0%,Max,299.9,P4,1.134,P2,139.6,P7,29.11,P25,160.4,P79,1.188,P2,139.6,P7,160.4,P79
9537,C94,,75.0%,Min,-244.4,P5,-0.5299,P3,-48.42,P92,10.13,P90,-151.6,P92,-2.103,P3,0.4885,P37,2.259,P22
9537,C94,,75.0%,Max,274.0,P4,5.805,P55,200.0,P7,72.59,P25,173.7,P79,2.808,P55,200.0,P7,173.7,P79
9537,C94,,75.0%,Min,-233.1,P5,-7.040,P61,-23.03,P92,26.63,P90,-150.4,P92,-4.718,P61,3.970,P86,2.061,P15
9537,C94,,81.2%,Max,274.0,P4,5.805,P55,205.2,P7,72.59,P25,238.5,P79,3.573,P4,205.2,P7,238.5,P79
9537,C94,,81.2%,Min,-233.1,P5,-7.040,P61,-19.16,P92,26.63,P90,-159.1,P92,-4.862,P5,4.502,P87,2.659,P17
9537,C94,,87.5%,Max,274.0,P4,5.805,P55,210.4,P7,72.59,P25,304.9,P79,4.626,P4,210.4,P7,304.9,P79
9537,C94,,87.5%,Min,-233.1,P5,-7.040,P61,-15.29,P92,26.63,P90,-166.2,P92,-5.463,P5,4.724,P82,3.650,P40
9537,C94,,93.7%,Max,274.0,P4,5.805,P55,215.6,P7,72.59,P25,387.2,P7,5.678,P4,215.7,P7,387.3,P7
9537,C94,,93.7%,Min,-233.1,P5,-7.040,P61,-11.42,P92,26.63,P90,-171.7,P92,-6.063,P5,4.741,P83,1.030,P90
9537,C94,4793,100.0%,Max,274.0,P4,5.805,P55,220.9,P7,72.59,P25,477.0,P7,6.859,P61,220.9,P7,477.0,P7
9537,C94,4793,100.0%,Min,-233.1,P5,-7.040,P61,-7.551,P92,26.63,P90,-175.6,P92,-6.738,P55,2.857,P69,6.810,P3
9538,C94,4807,0.0%,Max,88.82,P4,1.735,P4,-91.31,P4,-0.6708,P60,364.6,P6,2.076,P4,214.3,P25,364.6,P6
9538,C94,4807,0.0%,Min,-76.40,P5,-4.787,P5,-214.3,P25,-6.271,P21,108.4,P66,-4.760,P5,91.33,P4,108.4,P66
9538,C94,,7.9%,Max,88.82,P4,1.735,P4,-87.70,P4,-0.6708,P60,284.2,P7,2.215,P4,209.4,P25,284.2,P7
9538,C94,,7.9%,Min,-76.40,P5,-4.787,P5,-209.4,P25,-6.271,P21,72.84,P66,-3.727,P5,87.71,P4,72.84,P66
9538,C94,,15.8%,Max,88.82,P4,1.735,P4,-84.08,P4,-0.6708,P60,210.4,P7,2.355,P4,204.5,P25,210.4,P7
9538,C94,,15.8%,Min,-76.40,P5,-4.787,P5,-204.5,P25,-6.271,P21,38.66,P66,-2.694,P5,84.10,P4,38.66,P66
9538,C94,,23.8%,Max,88.82,P4,1.735,P4,-80.46,P4,-0.6708,P60,138.5,P7,2.494,P4,199.6,P25,138.5,P7
9538,C94,,23.8%,Min,-76.40,P5,-4.787,P5,-199.6,P25,-6.271,P21,5.870,P66,-1.661,P5,80.48,P4,5.874,P66
9538,C94,,31.7%,Max,88.82,P4,1.735,P4,-76.85,P4,-0.6708,P60,71.75,P77,2.634,P4,194.8,P25,71.76,P77
9538,C94,,31.7%,Min,-76.40,P5,-4.787,P5,-194.7,P25,-6.271,P21,-25.53,P66,-0.6283,P5,76.87,P4,1.385,P60
9538,C94,,31.7%,Max,62.52,P4,1.131,P4,-67.81,P4,1.425,P60,65.71,P81,0.4773,P2,174.4,P25,65.71,P81
9538,C94,,31.7%,Min,-52.42,P82,-2.072,P5,-174.4,P25,-3.941,P57,-30.02,P66,-0.4188,P3,67.82,P4,1.208,P3
9538,C94,,39.6%,Max,62.52,P4,1.131,P4,-64.19,P4,1.425,P60,30.09,P81,0.9868,P4,169.5,P25,65.85,P10
9538,C94,,39.6%,Min,-52.42,P82,-2.072,P5,-169.5,P25,-3.941,P57,-65.85,P10,-0.5670,P5,64.20,P4,0.3711,P52
9538,C94,,47.5%,Max,62.52,P4,1.131,P4,-60.58,P4,1.425,P60,-4.144,P81,1.644,P4,164.6,P25,120.4,P10
9538,C94,,47.5%,Min,-52.42,P82,-2.072,P5,-164.6,P25,-3.941,P57,-120.4,P10,-0.8625,P5,60.59,P4,4.216,P81
9538,C94,,55.5%,Max,62.52,P4,1.131,P4,-56.96,P4,1.425,P60,-36.99,P81,2.300,P4,159.7,P25,178.3,P22
9538,C94,,55.5%,Min,-52.42,P82,-2.072,P5,-159.7,P25,-3.941,P57,-178.3,P22,-1.158,P5,56.97,P4,37.01,P81
9538,C94,,63.4%,Max,62.52,P4,1.131,P4,-53.34,P4,1.425,P60,-68.44,P81,2.957,P4,154.9,P25,234.9,P22
9538,C94,,63.4%,Min,-52.42,P82,-2.072,P5,-154.8,P25,-3.941,P57,-234.9,P22,-1.453,P5,53.36,P4,68.46,P81
9538,C94,,63.4%,Max,40.52,P77,30.28,P7,132.2,P23,29.90,P18,-63.80,P81,14.65,P7,132.3,P27,195.1,P8
9538,C94,,63.4%,Min,-42.02,P82,-18.40,P83,32.98,P5,-6.479,P57,-195.1,P8,-7.675,P83,34.12,P5,64.67,P81
9538,C94,,72.5%,Max,40.52,P77,30.28,P7,137.8,P23,29.90,P18,-23.54,P4,11.55,P4,137.9,P27,135.7,P8
9538,C94,,72.5%,Min,-42.02,P82,-18.40,P83,37.16,P5,-6.479,P57,-135.7,P8,-10.21,P5,38.17,P5,26.22,P4
9538,C94,,81.7%,Max,40.52,P77,30.28,P7,143.4,P23,29.90,P18,20.66,P4,11.72,P4,143.6,P27,96.09,P5
9538,C94,,81.7%,Min,-42.02,P82,-18.40,P83,41.33,P5,-6.479,P57,-94.58,P5,-16.95,P5,42.25,P5,12.57,P2
9538,C94,,90.8%,Max,40.52,P77,30.28,P7,149.1,P23,29.90,P18,66.70,P4,16.81,P83,149.2,P27,77.41,P5
9538,C94,,90.8%,Min,-42.02,P82,-18.40,P83,45.51,P5,-6.479,P57,-73.70,P5,-25.64,P7,46.34,P5,2.585,P20
9538,C94,4808,100.0%,Max,40.52,P77,30.28,P7,154.7,P23,29.90,P18,114.6,P4,24.97,P83,154.8,P27,115.2,P4
9538,C94,4808,100.0%,Min,-42.02,P82,-18.40,P83,49.68,P5,-6.479,P57,-50.97,P5,-39.06,P7,50.45,P5,9.512,P64
9539,C94,4793,0.0%,Max,242.8,P4,10.85,P4,-78.62,P77,-7.218,P57,368.7,P9,10.86,P4,259.7,P8,368.7,P9
9539,C94,4793,0.0%,Min,-231.8,P5,-6.649,P69,-259.6,P8,-38.49,P25,-57.10,P79,-7.106,P68,79.29,P77,3.413,P80
9539,C94,,5.6%,Max,242.8,P4,10.85,P4,-75.11,P77,-7.218,P57,276.4,P9,8.291,P4,254.9,P8,276.4,P9
9539,C94,,5.6%,Min,-231.8,P5,-6.649,P69,-254.9,P8,-38.49,P25,-86.58,P79,-4.636,P68,75.81,P77,5.782,P53
9539,C94,,11.2%,Max,242.8,P4,10.85,P4,-71.60,P77,-7.218,P57,185.9,P9,5.727,P4,250.2,P8,185.9,P9
9539,C94,,11.2%,Min,-231.8,P5,-6.649,P69,-250.1,P8,-38.49,P25,-114.8,P79,-3.861,P5,72.33,P77,1.053,P43
9539,C94,,16.9%,Max,242.8,P4,10.85,P4,-68.09,P77,-7.218,P57,131.9,P92,3.320,P2,245.5,P8,141.6,P79
9539,C94,,16.9%,Min,-231.8,P5,-6.649,P69,-245.4,P8,-38.49,P25,-141.6,P79,-4.869,P3,68.85,P77,2.805,P41
9539,C94,,22.5%,Max,242.8,P4,10.85,P4,-64.58,P77,-7.218,P57,82.21,P92,2.822,P69,240.7,P8,187.4,P7
9539,C94,,22.5%,Min,-231.8,P5,-6.649,P69,-240.7,P8,-38.49,P25,-187.3,P7,-5.901,P3,65.38,P77,6.234,P2
9539,C94,,22.5%,Max,192.0,P4,2.257,P2,-60.76,P77,-8.051,P57,74.41,P92,0.4875,P69,229.3,P8,197.9,P7
9539,C94,,22.5%,Min,-200.7,P5,-1.135,P3,-229.3,P8,-39.85,P25,-197.9,P7,-0.6928,P5,60.76,P77,1.637,P2
9539,C94,,28.1%,Max,192.0,P4,2.257,P2,-57.25,P77,-8.051,P57,27.68,P92,0.5875,P2,224.5,P8,256.5,P7
9539,C94,,28.1%,Min,-200.7,P5,-1.135,P3,-224.5,P8,-39.85,P25,-256.5,P7,-1.320,P3,57.25,P77,1.620,P88
9539,C94,,33.7%,Max,192.0,P4,2.257,P2,-53.74,P77,-8.051,P57,-17.74,P92,0.8258,P2,219.8,P8,313.4,P7
9539,C94,,33.7%,Min,-200.7,P5,-1.135,P3,-219.8,P8,-39.85,P25,-313.4,P7,-1.977,P3,53.74,P77,17.74,P92
9539,C94,,39.4%,Max,192.0,P4,2.257,P2,-50.23,P77,-8.051,P57,-61.85,P92,1.064,P2,215.0,P8,371.7,P6
9539,C94,,39.4%,Min,-200.7,P5,-1.135,P3,-215.0,P8,-39.85,P25,-371.7,P6,-2.634,P3,50.23,P77,61.85,P92
9539,C94,,45.0%,Max,192.0,P4,2.257,P2,-46.71,P77,-8.051,P57,-104.7,P92,1.302,P2,210.3,P8,437.4,P6
9539,C94,,45.0%,Min,-200.7,P5,-1.135,P3,-210.3,P8,-39.85,P25,-437.4,P6,-3.291,P3,46.72,P77,104.7,P92
9539,C94,,45.0%,Max,141.4,P4,2.753,P4,199.0,P6,8.793,P21,-117.1,P68,3.018,P4,199.0,P6,465.1,P6
9539,C94,,45.0%,Min,-152.9,P5,-3.288,P5,43.03,P82,0.3047,P3,-465.1,P6,-4.002,P5,43.03,P82,117.1,P68
9539,C94,,51.9%,Max,141.4,P4,2.753,P4,204.8,P6,8.793,P21,-90.63,P68,2.787,P4,204.8,P6,373.0,P6
9539,C94,,51.9%,Min,-152.9,P5,-3.288,P5,47.32,P82,0.3047,P3,-373.0,P6,-3.527,P5,47.33,P82,90.63,P68
9539,C94,,58.7%,Max,141.4,P4,2.753,P4,210.6,P6,8.793,P21,-62.16,P68,2.555,P4,210.6,P6,284.8,P31
9539,C94,,58.7%,Min,-152.9,P5,-3.288,P5,51.62,P82,0.3047,P3,-284.8,P31,-3.051,P5,51.62,P82,62.16,P68
9539,C94,,65.6%,Max,141.4,P4,2.753,P4,216.4,P6,8.793,P21,-31.72,P68,2.324,P4,216.4,P6,197.1,P31
9539,C94,,65.6%,Min,-152.9,P5,-3.288,P5,55.91,P82,0.3047,P3,-197.1,P31,-2.576,P5,55.92,P82,31.72,P68
9539,C94,,72.5%,Max,141.4,P4,2.753,P4,222.2,P6,8.793,P21,6.891,P57,2.093,P4,222.2,P6,110.7,P18
9539,C94,,72.5%,Min,-152.9,P5,-3.288,P5,60.21,P82,0.3047,P3,-110.7,P18,-2.100,P5,60.21,P82,0.6849,P68
9539,C94,,72.5%,Max,94.00,P4,2.359,P33,249.6,P6,15.36,P33,16.89,P57,1.759,P8,249.6,P6,93.83,P18
9539,C94,,72.5%,Min,-104.7,P5,-0.1126,P3,71.04,P82,2.849,P3,-93.82,P18,0.2785,P3,71.05,P82,1.020,P77
9539,C94,,79.4%,Max,94.00,P4,2.359,P33,255.4,P6,15.36,P33,74.25,P4,1.095,P2,255.4,P6,74.25,P4
9539,C94,,79.4%,Min,-104.7,P5,-0.1126,P3,75.34,P82,2.849,P3,-18.89,P66,-0.5157,P3,75.34,P82,0.2929,P38
9539,C94,,86.2%,Max,94.00,P4,2.359,P33,261.2,P6,15.36,P33,179.5,P7,0.9126,P2,261.2,P6,179.5,P7
9539,C94,,86.2%,Min,-104.7,P5,-0.1126,P3,79.63,P82,2.849,P3,22.74,P58,-1.310,P3,79.64,P82,22.74,P58
9539,C94,,93.1%,Max,94.00,P4,2.359,P33,267.0,P6,15.36,P33,296.8,P7,0.7306,P2,267.0,P6,296.8,P7
9539,C94,,93.1%,Min,-104.7,P5,-0.1126,P3,83.93,P82,2.849,P3,61.57,P58,-2.104,P3,83.93,P82,61.57,P58
9539,C94,4807,100.0%,Max,94.00,P4,2.359,P33,272.8,P6,15.36,P33,416.9,P7,0.5485,P2,272.8,P6,416.9,P7
9539,C94,4807,100.0%,Min,-104.7,P5,-0.1126,P3,88.22,P82,2.849,P3,102.4,P58,-2.898,P3,88.23,P82,102.4,P58
9540,C94,6061,0.0%,Max,1633.,P2,97.04,P2,-143.3,P79,16.32,P6,555.9,P8,110.5,P2,304.4,P8,555.9,P8
9540,C94,6061,0.0%,Min,-1641.,P3,-96.84,P3,-304.4,P8,4.828,P5,233.5,P5,-109.0,P3,144.6,P78,240.1,P79
9540,C94,,4.2%,Max,1633.,P2,97.04,P2,-140.4,P79,16.32,P6,461.9,P8,85.80,P2,300.5,P8,462.0,P8
9540,C94,,4.2%,Min,-1641.,P3,-96.84,P3,-300.4,P8,4.828,P5,185.5,P5,-84.44,P3,141.7,P78,193.8,P5
9540,C94,,8.3%,Max,1633.,P2,97.04,P2,-137.5,P79,16.32,P6,369.2,P8,61.15,P2,296.5,P25,369.2,P8
9540,C94,,8.3%,Min,-1641.,P3,-96.84,P3,-296.5,P8,4.828,P5,138.5,P5,-59.84,P3,138.8,P78,143.9,P5
9540,C94,,12.5%,Max,1633.,P2,97.04,P2,-134.6,P79,16.32,P6,277.7,P8,36.49,P2,292.6,P25,277.7,P8
9540,C94,,12.5%,Min,-1641.,P3,-96.84,P3,-292.5,P8,4.828,P5,92.31,P5,-35.25,P3,135.9,P78,94.98,P5
9540,C94,,16.7%,Max,1633.,P2,97.04,P2,-131.6,P79,16.32,P6,187.4,P8,11.84,P2,288.6,P25,187.4,P8
9540,C94,,16.7%,Min,-1641.,P3,-96.84,P3,-288.6,P8,4.828,P5,47.06,P5,-10.65,P3,133.0,P78,47.39,P5
9540,C94,,16.7%,Max,1266.,P2,44.26,P2,-125.4,P79,15.66,P31,177.5,P8,29.48,P2,278.3,P8,177.5,P8
9540,C94,,16.7%,Min,-1272.,P3,-44.08,P3,-278.3,P8,5.144,P5,42.23,P5,-28.95,P3,125.5,P79,46.64,P5
9540,C94,,20.8%,Max,1266.,P2,44.26,P2,-122.5,P79,15.66,P31,91.61,P8,28.60,P2,274.3,P8,93.23,P4
9540,C94,,20.8%,Min,-1272.,P3,-44.08,P3,-274.3,P8,5.144,P5,-0.1920,P5,-28.13,P3,122.5,P79,18.95,P5
9540,C94,,25.0%,Max,1266.,P2,44.26,P2,-119.6,P79,15.66,P31,40.55,P4,27.72,P2,270.4,P8,48.72,P3
9540,C94,,25.0%,Min,-1272.,P3,-44.08,P3,-270.4,P8,5.144,P5,-41.71,P5,-27.30,P3,119.6,P79,0.05511,P15
9540,C94,,29.2%,Max,1266.,P2,44.26,P2,-116.6,P79,15.66,P31,-9.171,P4,26.83,P2,266.4,P8,89.39,P6
9540,C94,,29.2%,Min,-1272.,P3,-44.08,P3,-266.4,P8,5.144,P5,-89.38,P6,-26.47,P3,116.7,P79,19.86,P4
9540,C94,,33.3%,Max,1266.,P2,44.26,P2,-113.7,P79,15.66,P31,-57.04,P2,25.95,P2,262.5,P8,169.1,P6
9540,C94,,33.3%,Min,-1272.,P3,-44.08,P3,-262.5,P8,5.144,P5,-169.1,P6,-25.64,P3,113.8,P79,60.35,P4
9540,C94,,33.3%,Max,966.2,P2,12.65,P2,-32.80,P4,4.557,P6,-61.55,P2,10.70,P2,95.71,P8,177.0,P6
9540,C94,,33.3%,Min,-972.2,P3,-12.70,P3,-95.71,P8,0.8537,P5,-177.0,P6,-10.29,P3,33.89,P4,62.47,P2
9540,C94,,37.5%,Max,966.2,P2,12.65,P2,-29.88,P4,4.557,P6,-80.82,P2,9.452,P2,91.77,P8,204.3,P6
9540,C94,,37.5%,Min,-972.2,P3,-12.70,P3,-91.76,P8,0.8537,P5,-204.3,P6,-9.020,P3,31.07,P4,81.37,P2
9540,C94,,41.7%,Max,966.2,P2,12.65,P2,-26.95,P4,4.557,P6,-99.19,P2,8.204,P2,87.82,P8,230.4,P25
9540,C94,,41.7%,Min,-972.2,P3,-12.70,P3,-87.81,P8,0.8537,P5,-230.4,P25,-7.753,P3,28.27,P4,99.53,P2
9540,C94,,45.8%,Max,966.2,P2,12.65,P2,-24.03,P4,4.557,P6,-114.8,P67,6.955,P2,83.87,P8,257.1,P25
9540,C94,,45.8%,Min,-972.2,P3,-12.70,P3,-83.86,P8,0.8537,P5,-257.1,P25,-6.486,P3,25.50,P4,114.8,P67
9540,C94,,50.0%,Max,966.2,P2,12.65,P2,-21.10,P4,4.557,P6,-126.5,P67,5.706,P2,79.92,P8,282.5,P25
9540,C94,,50.0%,Min,-972.2,P3,-12.70,P3,-79.91,P8,0.8537,P5,-282.5,P25,-5.219,P3,22.76,P4,126.5,P67
9540,C94,,50.0%,Max,772.1,P2,21.99,P2,-8.360,P4,2.153,P6,-126.8,P67,12.19,P2,58.68,P8,282.6,P25
9540,C94,,50.0%,Min,-775.2,P3,-21.56,P3,-58.67,P8,-0.006829,P5,-282.6,P25,-11.79,P3,17.16,P4,126.8,P67
9540,C94,,54.2%,Max,772.1,P2,21.99,P2,-5.435,P4,2.153,P6,-134.9,P67,12.92,P2,54.73,P8,300.2,P25
9540,C94,,54.2%,Min,-775.2,P3,-21.56,P3,-54.72,P8,-0.006829,P5,-300.2,P25,-12.65,P3,15.94,P4,134.9,P67
9540,C94,,58.3%,Max,772.1,P2,21.99,P2,-2.510,P4,2.153,P6,-141.0,P55,13.65,P2,50.92,P5,316.5,P25
9540,C94,,58.3%,Min,-775.2,P3,-21.56,P3,-50.78,P8,-0.006829,P5,-316.5,P25,-13.51,P3,15.19,P4,141.0,P55
9540,C94,,62.5%,Max,772.1,P2,21.99,P2,0.4157,P4,2.153,P6,-145.4,P55,14.38,P2,48.12,P5,331.6,P25
9540,C94,,62.5%,Min,-775.2,P3,-21.56,P3,-46.83,P8,-0.006829,P5,-331.6,P25,-14.37,P3,12.63,P79,145.4,P55
9540,C94,,66.7%,Max,772.1,P2,21.99,P2,3.341,P4,2.153,P6,-148.9,P55,15.11,P2,45.34,P5,345.5,P25
9540,C94,,66.7%,Min,-775.2,P3,-21.56,P3,-42.94,P5,-0.006829,P5,-345.5,P25,-15.24,P3,9.871,P79,148.9,P55
9540,C94,,66.7%,Max,592.7,P2,5.287,P2,139.9,P6,-3.683,P56,-147.4,P55,3.944,P2,139.9,P6,342.8,P25
9540,C94,,66.7%,Min,-591.8,P3,-5.503,P3,46.35,P5,-9.482,P8,-342.8,P25,-3.932,P3,46.48,P5,147.4,P55
9540,C94,,70.8%,Max,592.7,P2,5.287,P2,143.9,P6,-3.683,P56,-122.6,P4,3.803,P2,143.9,P6,300.4,P25
9540,C94,,70.8%,Min,-591.8,P3,-5.503,P3,49.28,P5,-9.482,P8,-300.4,P25,-3.724,P3,49.40,P5,122.6,P4
9540,C94,,75.0%,Max,592.7,P2,5.287,P2,147.8,P6,-3.683,P56,-92.03,P4,3.662,P2,147.8,P6,256.8,P25
9540,C94,,75.0%,Min,-591.8,P3,-5.503,P3,52.20,P5,-9.482,P8,-256.8,P25,-3.516,P3,52.32,P5,92.06,P4
9540,C94,,79.2%,Max,592.7,P2,5.287,P2,151.8,P6,-3.683,P56,-60.57,P4,3.521,P2,151.8,P6,211.9,P25
9540,C94,,79.2%,Min,-591.8,P3,-5.503,P3,55.13,P5,-9.482,P8,-211.9,P25,-3.308,P3,55.24,P5,60.63,P4
9540,C94,,83.3%,Max,592.7,P2,5.287,P2,155.7,P6,-3.683,P56,-28.21,P4,3.380,P2,155.7,P6,165.8,P25
9540,C94,,83.3%,Min,-591.8,P3,-5.503,P3,58.06,P5,-9.482,P8,-165.8,P25,-3.100,P3,58.16,P5,28.34,P4
9540,C94,,83.3%,Max,463.6,P2,18.59,P2,171.5,P6,-4.139,P56,-22.94,P4,7.645,P2,171.5,P6,158.1,P25
9540,C94,,83.3%,Min,-462.6,P3,-20.16,P3,64.24,P5,-10.20,P31,-158.1,P25,-7.738,P3,65.41,P5,23.36,P4
9540,C94,,87.5%,Max,463.6,P2,18.59,P2,175.5,P6,-4.139,P56,14.42,P4,10.08,P2,175.5,P6,121.2,P5
9540,C94,,87.5%,Min,-462.6,P3,-20.16,P3,67.16,P5,-10.20,P31,-121.1,P5,-9.688,P3,68.28,P5,15.64,P4
9540,C94,,91.7%,Max,463.6,P2,18.59,P2,179.4,P6,-4.139,P56,52.69,P4,12.52,P2,179.4,P6,99.43,P5
9540,C94,,91.7%,Min,-462.6,P3,-20.16,P3,70.09,P5,-10.20,P31,-99.20,P5,-11.64,P3,71.16,P5,1.278,P78
9540,C94,,95.8%,Max,463.6,P2,18.59,P2,183.4,P6,-4.139,P56,91.87,P4,14.96,P2,183.4,P6,92.34,P4
9540,C94,,95.8%,Min,-462.6,P3,-20.16,P3,73.01,P5,-10.20,P31,-76.40,P5,-13.59,P3,74.04,P5,1.362,P51
9540,C94,6063,100.0%,Max,463.6,P2,18.59,P2,187.3,P6,-4.139,P56,132.0,P4,17.40,P2,187.3,P6,132.4,P4
9540,C94,6063,100.0%,Min,-462.6,P3,-20.16,P3,75.94,P5,-10.20,P31,-52.69,P5,-15.54,P3,76.93,P5,5.970,P65
9541,C94,6063,0.0%,Max,379.7,P2,5.290,P2,8.338,P4,1.823,P4,119.1,P4,5.677,P2,65.23,P19,119.2,P4
9541,C94,6063,0.0%,Min,-361.0,P3,-4.127,P3,-65.23,P19,-1.733,P5,-82.91,P5,-4.030,P3,1.121,P49,1.245,P34
9541,C94,,6.2%,Max,379.7,P2,5.290,P2,11.88,P4,1.823,P4,99.20,P4,4.915,P2,60.46,P19,99.25,P4
9541,C94,,6.2%,Min,-361.0,P3,-4.127,P3,-60.45,P19,-1.733,P5,-80.75,P5,-3.706,P3,0.8916,P53,0.9219,P47
9541,C94,,12.5%,Max,379.7,P2,5.290,P2,15.42,P4,1.823,P4,80.59,P4,4.154,P2,55.68,P19,80.64,P4
9541,C94,,12.5%,Min,-361.0,P3,-4.127,P3,-55.67,P19,-1.733,P5,-77.26,P5,-3.381,P3,1.367,P36,0.1197,P67
9541,C94,,18.7%,Max,379.7,P2,5.290,P2,18.96,P4,1.823,P4,63.32,P4,3.392,P2,50.90,P19,72.46,P5
9541,C94,,18.7%,Min,-361.0,P3,-4.127,P3,-50.89,P19,-1.733,P5,-72.44,P5,-3.057,P3,0.9558,P48,0.5499,P6
9541,C94,,25.0%,Max,379.7,P2,5.290,P2,22.50,P4,1.823,P4,47.38,P4,2.630,P2,46.12,P19,66.31,P5
9541,C94,,25.0%,Min,-361.0,P3,-4.127,P3,-46.11,P19,-1.733,P5,-66.28,P5,-2.733,P3,0.3511,P77,0.6096,P76
9541,C94,,25.0%,Max,323.3,P2,4.176,P2,32.00,P4,-0.3064,P4,46.25,P4,3.384,P2,34.03,P5,64.84,P5
9541,C94,,25.0%,Min,-294.5,P3,-3.425,P3,-33.94,P5,-4.357,P6,-64.82,P5,-2.091,P3,0.4590,P10,1.365,P72
9541,C94,,31.2%,Max,323.3,P2,4.176,P2,35.54,P4,-0.3064,P4,41.05,P4,3.403,P2,35.69,P4,59.05,P5
9541,C94,,31.2%,Min,-294.5,P3,-3.425,P3,-30.39,P5,-4.357,P6,-59.01,P5,-2.392,P3,0.5647,P26,0.7833,P48
9541,C94,,37.5%,Max,323.3,P2,4.176,P2,39.08,P4,-0.3064,P4,37.18,P4,3.422,P2,39.21,P4,51.93,P5
9541,C94,,37.5%,Min,-294.5,P3,-3.425,P3,-26.85,P5,-4.357,P6,-51.88,P5,-2.694,P3,2.313,P7,0.6031,P63
9541,C94,,43.7%,Max,323.3,P2,4.176,P2,42.62,P4,-0.3064,P4,34.64,P4,3.440,P2,42.74,P4,51.46,P19
9541,C94,,43.7%,Min,-294.5,P3,-3.425,P3,-23.31,P5,-4.357,P6,-51.46,P19,-2.995,P3,0.9135,P33,0.1668,P70
9541,C94,,50.0%,Max,323.3,P2,4.176,P2,46.16,P4,-0.3064,P4,46.97,P49,3.459,P2,46.27,P4,55.59,P19
9541,C94,,50.0%,Min,-294.5,P3,-3.425,P3,-19.77,P5,-4.357,P6,-55.59,P19,-3.296,P3,0.9015,P30,0.9229,P27
9541,C94,,50.0%,Max,258.8,P2,3.081,P2,179.3,P25,-0.6393,P84,49.04,P49,4.054,P4,179.3,P25,56.78,P19
9541,C94,,50.0%,Min,-217.2,P3,-3.384,P3,55.12,P55,-10.70,P7,-56.78,P19,-2.697,P5,55.13,P55,1.252,P34
9541,C94,,56.2%,Max,258.8,P2,3.081,P2,184.1,P25,-0.6393,P84,103.9,P13,3.745,P4,184.1,P25,103.9,P13
9541,C94,,56.2%,Min,-217.2,P3,-3.384,P3,58.66,P55,-10.70,P7,-24.71,P67,-2.274,P5,58.67,P55,0.9090,P79
9541,C94,,62.5%,Max,258.8,P2,3.081,P2,188.9,P25,-0.6393,P84,172.7,P13,3.435,P4,188.9,P25,172.7,P13
9541,C94,,62.5%,Min,-217.2,P3,-3.384,P3,62.21,P55,-10.70,P7,-0.5180,P55,-1.851,P5,62.21,P55,0.5283,P67
9541,C94,,68.7%,Max,258.8,P2,3.081,P2,193.7,P25,-0.6393,P84,243.3,P13,3.426,P2,193.7,P25,243.3,P13
9541,C94,,68.7%,Min,-217.2,P3,-3.384,P3,65.75,P55,-10.70,P7,23.54,P55,-1.727,P3,65.75,P55,23.56,P55
9541,C94,,75.0%,Max,258.8,P2,3.081,P2,198.4,P25,-0.6393,P84,315.7,P13,3.455,P2,198.4,P25,315.7,P13
9541,C94,,75.0%,Min,-217.2,P3,-3.384,P3,69.29,P55,-10.70,P7,48.93,P55,-1.643,P3,69.29,P55,48.95,P55
9541,C94,,75.0%,Max,219.2,P2,31.64,P4,205.2,P25,2.009,P82,329.8,P13,16.01,P4,205.6,P25,329.9,P13
9541,C94,,75.0%,Min,-149.5,P3,-9.953,P5,71.16,P55,-8.304,P7,54.37,P55,-4.281,P5,73.53,P43,55.17,P55
9541,C94,,81.2%,Max,219.2,P2,31.64,P4,209.9,P25,2.009,P82,406.2,P13,14.70,P4,210.4,P25,406.2,P13
9541,C94,,81.2%,Min,-149.5,P3,-9.953,P5,74.70,P55,-8.304,P7,81.80,P55,-11.13,P5,77.02,P55,81.83,P55
9541,C94,,87.5%,Max,219.2,P2,31.64,P4,214.7,P25,2.009,P82,484.4,P13,13.40,P4,215.2,P25,484.4,P13
9541,C94,,87.5%,Min,-149.5,P3,-9.953,P5,78.24,P55,-8.304,P7,110.6,P55,-17.98,P5,80.45,P55,110.7,P55
9541,C94,,93.7%,Max,219.2,P2,31.64,P4,219.5,P25,2.009,P82,564.4,P13,12.09,P4,219.9,P25,564.4,P13
9541,C94,,93.7%,Min,-149.5,P3,-9.953,P5,81.78,P55,-8.304,P7,140.6,P55,-24.83,P5,83.90,P55,141.1,P55
9541,C94,4835,100.0%,Max,219.2,P2,31.64,P4,224.3,P25,2.009,P82,646.2,P13,10.78,P4,224.7,P25,646.2,P13
9541,C94,4835,100.0%,Min,-149.5,P3,-9.953,P5,85.32,P55,-8.304,P7,172.1,P55,-31.68,P5,87.36,P55,173.1,P55
9542,C94,4820,0.0%,Max,443.8,P2,9.419,P4,-81.12,P4,9.291,P7,441.9,P25,9.670,P4,191.0,P25,442.0,P25
9542,C94,4820,0.0%,Min,-354.6,P3,-26.46,P5,-190.8,P25,-0.6434,P58,155.8,P5,-26.03,P5,81.66,P4,158.0,P5
9542,C94,,6.2%,Max,443.8,P2,9.419,P4,-77.58,P4,9.291,P7,371.0,P25,10.74,P4,186.2,P25,371.1,P25
9542,C94,,6.2%,Min,-354.6,P3,-26.46,P5,-186.0,P25,-0.6434,P58,125.8,P5,-20.69,P5,78.15,P4,127.5,P5
9542,C94,,12.5%,Max,443.8,P2,9.419,P4,-74.04,P4,9.291,P7,302.0,P25,11.81,P4,181.5,P25,302.0,P25
9542,C94,,12.5%,Min,-354.6,P3,-26.46,P5,-181.2,P25,-0.6434,P58,97.16,P5,-15.36,P5,74.63,P4,98.36,P5
9542,C94,,18.7%,Max,443.8,P2,9.419,P4,-70.50,P4,9.291,P7,234.7,P25,12.88,P4,176.7,P25,234.7,P25
9542,C94,,18.7%,Min,-354.6,P3,-26.46,P5,-176.5,P25,-0.6434,P58,69.82,P5,-10.02,P5,71.12,P4,70.54,P5
9542,C94,,25.0%,Max,443.8,P2,9.419,P4,-66.96,P4,9.291,P7,169.2,P25,13.95,P4,171.9,P25,169.3,P25
9542,C94,,25.0%,Min,-354.6,P3,-26.46,P5,-171.7,P25,-0.6434,P58,43.82,P5,-5.194,P58,67.62,P4,44.07,P5
9542,C94,,25.0%,Max,456.2,P2,2.802,P2,-55.18,P4,7.878,P7,160.7,P25,2.876,P2,153.5,P25,160.7,P25
9542,C94,,25.0%,Min,-409.1,P3,-4.491,P3,-153.5,P25,-0.4618,P58,40.52,P5,-2.859,P3,55.24,P4,40.56,P5
9542,C94,,31.2%,Max,456.2,P2,2.802,P2,-51.64,P4,7.878,P7,104.4,P13,3.215,P2,148.8,P25,104.4,P13
9542,C94,,31.2%,Min,-409.1,P3,-4.491,P3,-148.8,P25,-0.4618,P58,17.63,P5,-2.563,P3,51.70,P4,17.74,P5
9542,C94,,37.5%,Max,456.2,P2,2.802,P2,-48.10,P4,7.878,P7,52.53,P2,3.555,P2,144.0,P25,52.65,P2
9542,C94,,37.5%,Min,-409.1,P3,-4.491,P3,-144.0,P25,-0.4618,P58,-4.399,P3,-2.267,P3,48.16,P4,2.503,P55
9542,C94,,43.7%,Max,456.2,P2,2.802,P2,-44.56,P4,7.878,P7,19.09,P2,4.364,P4,139.2,P25,27.99,P3
9542,C94,,43.7%,Min,-409.1,P3,-4.491,P3,-139.2,P25,-0.4618,P58,-27.92,P3,-2.441,P5,44.63,P4,0.8916,P48
9542,C94,,50.0%,Max,456.2,P2,2.802,P2,-41.02,P4,7.878,P7,-13.02,P2,5.199,P4,134.4,P25,68.06,P31
9542,C94,,50.0%,Min,-409.1,P3,-4.491,P3,-134.4,P25,-0.4618,P58,-68.02,P31,-2.641,P5,41.10,P4,13.69,P2
9542,C94,,50.0%,Max,499.3,P2,3.157,P2,35.24,P4,5.043,P6,-14.82,P2,3.342,P2,35.28,P4,70.85,P31
9542,C94,,50.0%,Min,-463.1,P3,-3.880,P3,-28.70,P5,0.6875,P5,-70.85,P31,-3.068,P3,0.3152,P13,15.19,P2
9542,C94,,56.2%,Max,499.3,P2,3.157,P2,38.78,P4,5.043,P6,-9.241,P4,3.344,P2,38.82,P4,64.11,P31
9542,C94,,56.2%,Min,-463.1,P3,-3.880,P3,-25.16,P5,0.6875,P5,-64.11,P31,-2.798,P3,0.3825,P48,9.563,P4
9542,C94,,62.5%,Max,499.3,P2,3.157,P2,42.32,P4,5.043,P6,4.143,P4,3.347,P2,42.35,P4,60.46,P5
9542,C94,,62.5%,Min,-463.1,P3,-3.880,P3,-21.61,P5,0.6875,P5,-60.44,P5,-2.528,P3,0.1149,P36,4.900,P4
9542,C94,,68.7%,Max,499.3,P2,3.157,P2,45.87,P4,5.043,P6,18.86,P4,3.349,P2,45.89,P4,66.05,P5
9542,C94,,68.7%,Min,-463.1,P3,-3.880,P3,-18.07,P5,0.6875,P5,-66.03,P5,-2.258,P3,0.4423,P85,4.105,P2
9542,C94,,75.0%,Max,499.3,P2,3.157,P2,49.41,P4,5.043,P6,34.91,P4,3.351,P2,49.43,P4,70.31,P5
9542,C94,,75.0%,Min,-463.1,P3,-3.880,P3,-14.53,P5,0.6875,P5,-70.30,P5,-1.989,P3,2.067,P61,5.338,P81
9542,C94,,75.0%,Max,538.9,P2,4.650,P2,62.58,P4,1.481,P4,37.40,P4,2.887,P2,62.65,P4,71.15,P5
9542,C94,,75.0%,Min,-511.0,P3,-6.025,P3,-3.617,P5,-1.848,P5,-71.10,P5,-2.993,P3,5.751,P5,4.058,P81
9542,C94,,81.2%,Max,538.9,P2,4.650,P2,66.12,P4,1.481,P4,61.20,P4,3.764,P2,66.19,P4,71.44,P5
9542,C94,,81.2%,Min,-511.0,P3,-6.025,P3,-0.07621,P5,-1.848,P5,-71.39,P5,-3.352,P3,4.472,P5,0.5805,P74
9542,C94,,87.5%,Max,538.9,P2,4.650,P2,69.66,P4,1.481,P4,86.33,P4,4.641,P2,69.73,P4,86.40,P4
9542,C94,,87.5%,Min,-511.0,P3,-6.025,P3,3.464,P5,-1.848,P5,-70.35,P5,-3.712,P3,5.656,P5,0.2860,P67
9542,C94,,93.7%,Max,538.9,P2,4.650,P2,73.64,P6,1.481,P4,112.8,P4,5.518,P2,73.64,P6,112.9,P4
9542,C94,,93.7%,Min,-511.0,P3,-6.025,P3,7.005,P5,-1.848,P5,-67.98,P5,-4.072,P3,8.310,P5,1.197,P34
9542,C94,6064,100.0%,Max,538.9,P2,4.650,P2,78.42,P6,1.481,P4,140.6,P4,6.394,P2,78.42,P6,140.7,P4
9542,C94,6064,100.0%,Min,-511.0,P3,-6.025,P3,10.55,P5,-1.848,P5,-64.28,P5,-4.432,P3,11.45,P5,2.646,P58
9543,C94,6064,0.0%,Max,614.0,P2,22.93,P2,-77.10,P4,10.20,P33,152.3,P4,19.59,P2,191.8,P6,152.9,P4
9543,C94,6064,0.0%,Min,-599.2,P3,-20.61,P3,-191.8,P6,4.234,P61,-40.15,P5,-17.03,P3,78.83,P4,17.03,P3
9543,C94,,4.2%,Max,614.0,P2,22.93,P2,-74.17,P4,10.20,P33,110.8,P4,16.86,P2,187.9,P6,111.4,P4
9543,C94,,4.2%,Min,-599.2,P3,-20.61,P3,-187.8,P6,4.234,P61,-64.32,P5,-15.02,P3,75.97,P4,4.798,P62
9543,C94,,8.3%,Max,614.0,P2,22.93,P2,-71.25,P4,10.20,P33,70.17,P4,14.12,P2,183.9,P6,88.03,P5
9543,C94,,8.3%,Min,-599.2,P3,-20.61,P3,-183.9,P6,4.234,P61,-87.57,P5,-13.00,P3,73.11,P4,1.520,P54
9543,C94,,12.5%,Max,614.0,P2,22.93,P2,-68.32,P4,10.20,P33,30.46,P4,11.39,P2,180.0,P6,110.2,P5
9543,C94,,12.5%,Min,-599.2,P3,-20.61,P3,-179.9,P6,4.234,P61,-109.9,P5,-10.99,P3,70.27,P4,11.40,P2
9543,C94,,16.7%,Max,614.0,P2,22.93,P2,-65.40,P4,10.20,P33,-8.330,P4,8.656,P2,176.0,P6,132.7,P24
9543,C94,,16.7%,Min,-599.2,P3,-20.61,P3,-176.0,P6,4.234,P61,-132.7,P24,-8.977,P3,67.42,P4,10.46,P4
9543,C94,,16.7%,Max,748.4,P2,7.109,P2,-59.14,P4,9.296,P33,-13.75,P4,3.855,P2,159.9,P6,140.6,P24
9543,C94,,16.7%,Min,-728.4,P3,-6.763,P3,-159.9,P6,3.865,P49,-140.6,P24,-3.358,P3,59.40,P4,14.06,P4
9543,C94,,20.8%,Max,748.4,P2,7.109,P2,-56.21,P4,9.296,P33,-47.29,P4,4.253,P2,156.0,P6,188.5,P24
9543,C94,,20.8%,Min,-728.4,P3,-6.763,P3,-156.0,P6,3.865,P49,-188.5,P24,-3.864,P3,56.49,P4,47.41,P4
9543,C94,,25.0%,Max,748.4,P2,7.109,P2,-53.29,P4,9.296,P33,-79.91,P4,4.651,P2,152.0,P6,235.1,P24
9543,C94,,25.0%,Min,-728.4,P3,-6.763,P3,-152.0,P6,3.865,P49,-235.1,P24,-4.369,P3,53.58,P4,80.01,P4
9543,C94,,29.2%,Max,748.4,P2,7.109,P2,-50.36,P4,9.296,P33,-111.6,P4,5.050,P2,148.1,P6,280.5,P24
9543,C94,,29.2%,Min,-728.4,P3,-6.763,P3,-148.1,P6,3.865,P49,-280.5,P24,-4.875,P3,50.67,P4,111.7,P4
9543,C94,,33.3%,Max,748.4,P2,7.109,P2,-47.44,P4,9.296,P33,-142.4,P4,5.448,P2,144.2,P6,324.7,P24
9543,C94,,33.3%,Min,-728.4,P3,-6.763,P3,-144.1,P6,3.865,P49,-324.7,P24,-5.381,P3,47.77,P4,142.5,P4
9543,C94,,33.3%,Max,932.1,P2,23.44,P2,41.47,P4,0.04688,P4,-144.5,P4,16.00,P2,44.23,P4,327.3,P24
9543,C94,,33.3%,Min,-906.6,P3,-22.62,P3,-7.907,P5,-2.080,P6,-327.3,P24,-15.13,P3,10.75,P77,144.9,P4
9543,C94,,37.5%,Max,932.1,P2,23.44,P2,44.39,P4,0.04688,P4,-143.3,P4,15.28,P2,46.98,P4,315.3,P24
9543,C94,,37.5%,Min,-906.6,P3,-22.62,P3,-4.982,P5,-2.080,P6,-315.3,P24,-14.67,P3,13.64,P77,143.7,P4
9543,C94,,41.7%,Max,932.1,P2,23.44,P2,47.32,P4,0.04688,P4,-139.3,P2,14.56,P2,49.75,P4,302.0,P24
9543,C94,,41.7%,Min,-906.6,P3,-22.62,P3,-2.057,P5,-2.080,P6,-302.0,P24,-14.21,P3,14.70,P5,140.1,P2
9543,C94,,45.8%,Max,932.1,P2,23.44,P2,50.24,P4,0.04688,P4,-133.3,P2,13.85,P2,52.54,P4,287.5,P24
9543,C94,,45.8%,Min,-906.6,P3,-22.62,P3,0.8684,P5,-2.080,P6,-287.5,P24,-13.75,P3,14.58,P5,134.0,P2
9543,C94,,50.0%,Max,932.1,P2,23.44,P2,53.18,P8,0.04688,P4,-126.3,P2,13.13,P2,55.35,P4,271.8,P24
9543,C94,,50.0%,Min,-906.6,P3,-22.62,P3,3.794,P5,-2.080,P6,-271.8,P24,-13.29,P3,15.05,P5,127.0,P2
9543,C94,,50.0%,Max,1135.,P2,15.09,P2,74.78,P8,-0.9004,P4,-125.8,P2,6.771,P2,74.86,P8,271.7,P24
9543,C94,,50.0%,Min,-1102.,P3,-14.50,P3,16.84,P5,-4.728,P6,-271.7,P24,-5.970,P3,19.64,P5,126.0,P2
9543,C94,,54.2%,Max,1135.,P2,15.09,P2,78.72,P8,-0.9004,P4,-110.2,P2,8.134,P2,78.81,P8,248.1,P25
9543,C94,,54.2%,Min,-1102.,P3,-14.50,P3,19.77,P5,-4.728,P6,-248.1,P25,-7.515,P3,22.20,P5,110.5,P2
9543,C94,,58.3%,Max,1135.,P2,15.09,P2,82.67,P8,-0.9004,P4,-93.75,P2,9.497,P2,82.75,P8,223.6,P6
9543,C94,,58.3%,Min,-1102.,P3,-14.50,P3,22.69,P5,-4.728,P6,-223.6,P6,-9.060,P3,24.84,P5,94.23,P2
9543,C94,,62.5%,Max,1135.,P2,15.09,P2,86.62,P8,-0.9004,P4,-76.36,P2,10.86,P2,86.70,P8,198.7,P6
9543,C94,,62.5%,Min,-1102.,P3,-14.50,P3,25.62,P5,-4.728,P6,-198.7,P6,-10.61,P3,27.54,P5,77.12,P2
9543,C94,,66.7%,Max,1135.,P2,15.09,P2,90.57,P8,-0.9004,P4,-57.50,P4,12.22,P2,90.64,P8,172.5,P6
9543,C94,,66.7%,Min,-1102.,P3,-14.50,P3,28.54,P5,-4.728,P6,-172.5,P6,-12.15,P3,30.28,P5,58.18,P4
9543,C94,,66.7%,Max,1448.,P2,46.97,P2,256.7,P8,-5.061,P4,-53.16,P4,27.29,P2,256.8,P8,164.8,P6
9543,C94,,66.7%,Min,-1399.,P3,-44.64,P3,113.4,P81,-15.74,P33,-164.8,P6,-25.40,P3,114.0,P81,55.94,P4
9543,C94,,70.8%,Max,1448.,P2,46.97,P2,260.6,P8,-5.061,P4,-4.938,P4,28.02,P2,260.7,P8,87.15,P3
9543,C94,,70.8%,Min,-1399.,P3,-44.64,P3,116.4,P81,-15.74,P33,-86.38,P6,-26.86,P3,116.9,P81,18.74,P4
9543,C94,,75.0%,Max,1448.,P2,46.97,P2,264.6,P8,-5.061,P4,44.19,P4,28.76,P2,264.7,P8,50.44,P3
9543,C94,,75.0%,Min,-1399.,P3,-44.64,P3,119.3,P81,-15.74,P33,-46.17,P5,-28.31,P3,119.8,P81,0.1225,P26
9543,C94,,79.2%,Max,1448.,P2,46.97,P2,268.5,P8,-5.061,P4,94.23,P4,29.49,P2,268.6,P8,96.19,P4
9543,C94,,79.2%,Min,-1399.,P3,-44.64,P3,122.2,P81,-15.74,P33,-5.990,P5,-29.76,P3,122.7,P81,20.53,P5
9543,C94,,83.3%,Max,1448.,P2,46.97,P2,272.5,P8,-5.061,P4,170.9,P8,30.22,P2,272.6,P8,171.0,P8
9543,C94,,83.3%,Min,-1399.,P3,-44.64,P3,125.1,P81,-15.74,P33,35.10,P5,-31.22,P3,125.6,P81,40.90,P5
9543,C94,,83.3%,Max,1836.,P2,103.9,P2,282.5,P8,-4.802,P4,180.6,P8,12.56,P2,283.2,P8,180.6,P8
9543,C94,,83.3%,Min,-1768.,P3,-99.20,P3,131.6,P81,-16.36,P6,39.77,P5,-10.78,P3,133.5,P73,40.28,P5
9543,C94,,87.5%,Max,1836.,P2,103.9,P2,286.5,P8,-4.802,P4,269.0,P8,37.66,P2,287.2,P8,269.1,P8
9543,C94,,87.5%,Min,-1768.,P3,-99.20,P3,134.5,P81,-16.36,P6,83.60,P5,-37.34,P3,136.4,P73,87.04,P5
9543,C94,,91.7%,Max,1836.,P2,103.9,P2,290.4,P8,-4.802,P4,358.7,P8,62.77,P2,291.1,P8,358.8,P8
9543,C94,,91.7%,Min,-1768.,P3,-99.20,P3,137.4,P81,-16.36,P6,128.3,P5,-63.90,P3,139.3,P73,135.1,P5
9543,C94,,95.8%,Max,1836.,P2,103.9,P2,294.4,P8,-4.802,P4,449.5,P8,87.87,P2,295.0,P8,449.9,P8
9543,C94,,95.8%,Min,-1768.,P3,-99.20,P3,140.4,P81,-16.36,P6,174.0,P5,-90.45,P3,142.3,P73,184.0,P5
9543,C94,4836,100.0%,Max,1836.,P2,103.9,P2,298.3,P8,-4.802,P4,541.6,P8,113.0,P2,299.0,P8,542.1,P8
9543,C94,4836,100.0%,Min,-1768.,P3,-99.20,P3,143.3,P81,-16.36,P6,220.5,P5,-117.0,P3,145.2,P73,233.8,P5
9545,C94,4878,0.0%,Max,548.2,P2,45.55,P2,-128.3,P57,14.33,P8,689.5,P24,45.83,P2,387.4,P24,689.7,P24
9545,C94,4878,0.0%,Min,-564.8,P3,-28.95,P3,-387.1,P24,2.816,P3,122.5,P5,-27.35,P3,128.4,P57,123.4,P5
9545,C94,,6.3%,Max,548.2,P2,45.55,P2,-124.1,P57,14.33,P8,516.6,P24,40.57,P2,381.7,P24,516.7,P24
9545,C94,,6.3%,Min,-564.8,P3,-28.95,P3,-381.4,P24,2.816,P3,54.12,P5,-29.56,P3,124.1,P57,56.95,P5
9545,C94,,12.5%,Max,548.2,P2,45.55,P2,-119.8,P57,14.33,P8,346.7,P4,35.31,P2,376.0,P24,347.6,P4
9545,C94,,12.5%,Min,-564.8,P3,-28.95,P3,-375.6,P24,2.816,P3,-12.38,P5,-31.76,P3,119.9,P57,24.06,P5
9545,C94,,18.8%,Max,548.2,P2,45.55,P2,-115.6,P57,14.33,P8,242.7,P4,30.05,P2,370.3,P24,243.5,P4
9545,C94,,18.8%,Min,-564.8,P3,-28.95,P3,-369.9,P24,2.816,P3,-76.97,P5,-33.96,P3,115.7,P57,1.814,P57
9545,C94,,25.0%,Max,548.2,P2,45.55,P2,-111.4,P57,14.33,P8,140.6,P4,24.78,P2,364.6,P24,144.2,P3
9545,C94,,25.0%,Min,-564.8,P3,-28.95,P3,-364.2,P24,2.816,P3,-139.7,P5,-36.17,P3,111.4,P57,6.673,P92
9545,C94,,25.0%,Max,497.2,P2,11.30,P2,-60.80,P57,19.18,P33,103.6,P2,8.933,P2,234.2,P24,170.4,P3
9545,C94,,25.0%,Min,-523.7,P3,-6.882,P3,-234.1,P24,6.326,P3,-170.3,P3,-4.097,P3,60.82,P57,2.390,P88
9545,C94,,31.2%,Max,497.2,P2,11.30,P2,-56.57,P57,19.18,P33,37.70,P2,8.792,P2,228.4,P24,208.1,P3
9545,C94,,31.2%,Min,-523.7,P3,-6.882,P3,-228.4,P24,6.326,P3,-208.0,P3,-5.943,P3,56.58,P57,33.12,P4
9545,C94,,37.5%,Max,497.2,P2,11.30,P2,-52.33,P57,19.18,P33,-26.29,P2,8.651,P2,222.7,P24,269.5,P33
9545,C94,,37.5%,Min,-523.7,P3,-6.882,P3,-222.7,P24,6.326,P3,-269.5,P33,-7.788,P3,52.35,P57,27.68,P2
9545,C94,,43.7%,Max,497.2,P2,11.30,P2,-48.10,P57,19.18,P33,-88.38,P2,8.510,P2,217.0,P24,363.8,P8
9545,C94,,43.7%,Min,-523.7,P3,-6.882,P3,-217.0,P24,6.326,P3,-363.8,P8,-9.633,P3,48.11,P57,88.79,P2
9545,C94,,50.0%,Max,497.2,P2,11.30,P2,-43.86,P57,19.18,P33,-148.6,P2,8.369,P2,211.3,P24,458.5,P8
9545,C94,,50.0%,Min,-523.7,P3,-6.882,P3,-211.2,P24,6.326,P3,-458.5,P8,-11.48,P3,43.88,P57,148.8,P2
9545,C94,,50.0%,Max,503.3,P2,14.49,P2,159.8,P33,-16.52,P77,-131.9,P79,12.50,P2,159.8,P33,431.7,P8
9545,C94,,50.0%,Min,-530.2,P3,-9.388,P3,11.92,P60,-45.63,P33,-431.7,P8,-7.297,P3,13.47,P60,131.9,P79
9545,C94,,56.2%,Max,503.3,P2,14.49,P2,165.5,P33,-16.52,P77,-87.82,P79,11.80,P2,165.5,P33,372.8,P8
9545,C94,,56.2%,Min,-530.2,P3,-9.388,P3,16.16,P60,-45.63,P33,-372.8,P8,-8.885,P3,17.34,P60,87.82,P79
9545,C94,,62.5%,Max,503.3,P2,14.49,P2,171.2,P33,-16.52,P77,-41.79,P79,11.09,P2,171.2,P33,311.6,P24
9545,C94,,62.5%,Min,-530.2,P3,-9.388,P3,20.39,P60,-45.63,P33,-311.6,P24,-10.47,P3,21.34,P60,41.80,P79
9545,C94,,68.7%,Max,503.3,P2,14.49,P2,176.9,P33,-16.52,P77,6.138,P79,10.38,P2,177.0,P33,258.9,P12
9545,C94,,68.7%,Min,-530.2,P3,-9.388,P3,24.63,P60,-45.63,P33,-258.9,P12,-12.06,P3,25.42,P60,0.3088,P54
9545,C94,,75.0%,Max,503.3,P2,14.49,P2,182.6,P33,-16.52,P77,56.07,P81,9.679,P2,182.7,P33,206.5,P12
9545,C94,,75.0%,Min,-530.2,P3,-9.388,P3,28.87,P60,-45.63,P33,-206.4,P12,-13.65,P3,29.54,P60,2.567,P42
9545,C94,,75.0%,Max,456.3,P2,8.296,P2,254.4,P33,17.74,P6,85.24,P81,4.893,P4,254.4,P33,180.4,P60
9545,C94,,75.0%,Min,-496.8,P3,-3.982,P3,52.28,P60,1.295,P69,-180.4,P60,-2.099,P5,52.50,P60,1.373,P21
9545,C94,,81.3%,Max,456.3,P2,8.296,P2,260.1,P33,17.74,P6,149.8,P81,4.819,P4,260.1,P33,155.9,P60
9545,C94,,81.3%,Min,-496.8,P3,-3.982,P3,56.52,P60,1.295,P69,-155.9,P60,-3.966,P5,56.72,P60,1.017,P23
9545,C94,,87.5%,Max,456.3,P2,8.296,P2,265.8,P33,17.74,P6,223.5,P7,5.068,P2,265.8,P33,223.5,P7
9545,C94,,87.5%,Min,-496.8,P3,-3.982,P3,60.75,P60,1.295,P69,-129.5,P60,-6.155,P3,60.94,P60,0.7050,P90
9545,C94,,93.8%,Max,456.3,P2,8.296,P2,271.5,P33,17.74,P6,337.7,P7,5.428,P2,271.5,P33,337.7,P7
9545,C94,,93.8%,Min,-496.8,P3,-3.982,P3,64.99,P60,1.295,P69,-101.2,P60,-8.457,P3,65.16,P60,1.904,P63
9545,C94,4881,100.0%,Max,456.3,P2,8.296,P2,277.3,P33,17.74,P6,454.4,P7,5.789,P2,277.3,P33,454.4,P7
9545,C94,4881,100.0%,Min,-496.8,P3,-3.982,P3,69.22,P60,1.295,P69,-71.04,P60,-10.76,P3,69.39,P60,4.272,P86
9546,C94,5113,0.0%,Max,751.6,P2,7.809,P9,-127.9,P4,13.35,P4,434.9,P6,6.269,P4,330.1,P6,434.9,P6
9546,C94,5113,0.0%,Min,-737.7,P3,-0.9594,P81,-330.1,P6,-3.048,P5,82.22,P5,-1.447,P5,128.0,P4,82.23,P5
9546,C94,,4.2%,Max,751.6,P2,7.809,P9,-124.5,P4,13.35,P4,317.5,P6,4.426,P4,325.5,P6,317.5,P6
9546,C94,,4.2%,Min,-737.7,P3,-0.9594,P81,-325.5,P6,-3.048,P5,36.68,P5,-1.953,P5,124.7,P4,36.73,P5
9546,C94,,8.3%,Max,751.6,P2,7.809,P9,-121.1,P4,13.35,P4,210.3,P4,2.584,P4,321.0,P6,210.3,P4
9546,C94,,8.3%,Min,-737.7,P3,-0.9594,P81,-321.0,P6,-3.048,P5,-7.658,P5,-2.459,P5,121.3,P4,8.043,P5
9546,C94,,12.5%,Max,751.6,P2,7.809,P9,-117.7,P4,13.35,P4,130.0,P4,1.306,P81,316.4,P6,130.0,P4
9546,C94,,12.5%,Min,-737.7,P3,-0.9594,P81,-316.4,P6,-3.048,P5,-50.79,P5,-3.718,P9,117.9,P4,10.80,P3
9546,C94,,16.7%,Max,751.6,P2,7.809,P9,-114.4,P4,13.35,P4,50.91,P4,1.650,P81,311.9,P6,92.77,P5
9546,C94,,16.7%,Min,-737.7,P3,-0.9594,P81,-311.9,P6,-3.048,P5,-92.71,P5,-6.514,P9,114.6,P4,6.894,P81
9546,C94,,16.7%,Max,698.7,P2,1.785,P2,-103.5,P4,5.364,P4,39.78,P4,0.1885,P73,277.3,P6,93.66,P5
9546,C94,,16.7%,Min,-660.6,P3,-3.878,P3,-277.3,P6,-4.396,P5,-93.64,P5,-2.211,P9,103.5,P4,8.367,P2
9546,C94,,20.8%,Max,698.7,P2,1.785,P2,-100.1,P4,5.364,P4,-25.44,P4,1.130,P2,272.7,P6,140.4,P8
9546,C94,,20.8%,Min,-660.6,P3,-3.878,P3,-272.7,P6,-4.396,P5,-140.4,P8,-2.112,P3,100.1,P4,25.44,P4
9546,C94,,25.0%,Max,698.7,P2,1.785,P2,-96.77,P4,5.364,P4,-89.45,P4,2.118,P2,268.2,P6,234.8,P30
9546,C94,,25.0%,Min,-660.6,P3,-3.878,P3,-268.2,P6,-4.396,P5,-234.8,P30,-2.351,P3,96.77,P4,89.46,P4
9546,C94,,29.2%,Max,698.7,P2,1.785,P2,-93.40,P4,5.364,P4,-152.2,P4,3.106,P2,263.6,P6,328.6,P30
9546,C94,,29.2%,Min,-660.6,P3,-3.878,P3,-263.6,P6,-4.396,P5,-328.6,P30,-2.589,P3,93.40,P4,152.3,P4
9546,C94,,33.3%,Max,698.7,P2,1.785,P2,-90.03,P4,5.364,P4,-198.4,P88,4.094,P2,259.1,P6,421.0,P6
9546,C94,,33.3%,Min,-660.6,P3,-3.878,P3,-259.1,P6,-4.396,P5,-421.0,P6,-2.827,P3,90.03,P4,198.4,P88
9546,C94,,33.3%,Max,657.6,P2,15.19,P9,47.07,P4,-1.779,P69,-204.6,P76,11.12,P9,47.75,P4,433.1,P32
9546,C94,,33.3%,Min,-551.6,P3,-7.411,P81,-23.65,P5,-9.247,P25,-433.1,P32,-5.158,P81,2.604,P48,204.6,P76
9546,C94,,37.5%,Max,657.6,P2,15.19,P9,50.44,P4,-1.779,P69,-203.0,P65,5.816,P2,51.08,P4,424.8,P32
9546,C94,,37.5%,Min,-551.6,P3,-7.411,P81,-20.28,P5,-9.247,P25,-424.8,P32,-2.504,P81,2.629,P3,203.0,P65
9546,C94,,41.7%,Max,657.6,P2,15.19,P9,53.81,P4,-1.779,P69,-194.7,P89,3.918,P2,54.41,P4,415.0,P32
9546,C94,,41.7%,Min,-551.6,P3,-7.411,P81,-16.90,P5,-9.247,P25,-415.0,P32,-3.053,P3,0.7526,P3,194.7,P89
9546,C94,,45.8%,Max,657.6,P2,15.19,P9,57.18,P4,-1.779,P69,-184.0,P4,2.808,P80,57.74,P4,403.4,P32
9546,C94,,45.8%,Min,-551.6,P3,-7.411,P81,-13.53,P5,-9.247,P25,-403.4,P32,-5.194,P9,4.118,P3,184.0,P4
9546,C94,,50.0%,Max,657.6,P2,15.19,P9,60.55,P4,-1.779,P69,-171.0,P4,5.458,P81,61.08,P4,391.3,P6
9546,C94,,50.0%,Min,-551.6,P3,-7.411,P81,-10.16,P5,-9.247,P25,-391.3,P6,-10.63,P9,7.488,P3,171.0,P4
9546,C94,,50.0%,Max,577.9,P2,3.473,P2,67.02,P4,-3.242,P69,-167.9,P4,2.229,P73,67.05,P4,387.9,P6
9546,C94,,50.0%,Min,-438.5,P3,-3.276,P3,0.1665,P5,-10.82,P25,-387.9,P6,-2.737,P93,1.759,P5,168.0,P4
9546,C94,,54.2%,Max,577.9,P2,3.473,P2,70.39,P4,-3.242,P69,-144.1,P4,2.950,P73,70.42,P4,368.4,P6
9546,C94,,54.2%,Min,-438.5,P3,-3.276,P3,3.538,P5,-10.82,P25,-368.4,P6,-3.549,P93,3.948,P5,144.1,P4
9546,C94,,58.3%,Max,577.9,P2,3.473,P2,74.71,P9,-3.242,P69,-119.0,P4,3.671,P73,74.75,P9,347.2,P6
9546,C94,,58.3%,Min,-438.5,P3,-3.276,P3,6.909,P5,-10.82,P25,-347.2,P6,-4.362,P93,7.128,P5,119.1,P4
9546,C94,,62.5%,Max,577.9,P2,3.473,P2,79.26,P9,-3.242,P69,-92.78,P4,4.393,P73,79.29,P9,324.4,P6
9546,C94,,62.5%,Min,-438.5,P3,-3.276,P3,10.28,P5,-10.82,P25,-324.4,P6,-5.175,P93,10.43,P5,92.82,P4
9546,C94,,66.7%,Max,577.9,P2,3.473,P2,83.81,P9,-3.242,P69,-65.31,P4,5.114,P73,83.84,P9,300.0,P6
9546,C94,,66.7%,Min,-438.5,P3,-3.276,P3,13.65,P5,-10.82,P25,-300.0,P6,-5.991,P92,13.76,P5,65.38,P4
9546,C94,,66.7%,Max,584.3,P9,33.76,P2,306.8,P8,-8.280,P85,-47.65,P4,21.93,P2,307.6,P8,268.9,P6
9546,C94,,66.7%,Min,-357.5,P81,-19.03,P3,127.6,P72,-26.23,P33,-268.9,P6,-10.94,P3,128.2,P72,50.58,P4
9546,C94,,71.3%,Max,584.3,P9,33.76,P2,311.8,P8,-8.280,P85,25.35,P4,21.29,P2,312.6,P8,169.3,P5
9546,C94,,71.3%,Min,-357.5,P81,-19.03,P3,131.4,P72,-26.23,P33,-168.8,P5,-16.11,P3,131.9,P72,29.33,P89
9546,C94,,75.8%,Max,584.3,P9,33.76,P2,316.8,P8,-8.280,P85,99.83,P4,20.64,P2,317.6,P8,111.8,P5
9546,C94,,75.8%,Min,-357.5,P81,-19.03,P3,135.1,P72,-26.23,P33,-110.0,P5,-21.27,P3,135.6,P72,4.632,P42
9546,C94,,80.4%,Max,584.3,P9,33.76,P2,321.8,P8,-8.280,P85,175.8,P4,20.59,P4,322.6,P8,177.0,P4
9546,C94,,80.4%,Min,-357.5,P81,-19.03,P3,138.8,P72,-26.23,P33,-49.67,P5,-27.03,P5,139.3,P72,15.65,P72
9546,C94,,85.0%,Max,584.3,P9,33.76,P2,326.8,P8,-8.280,P85,266.0,P9,21.81,P4,327.6,P8,267.7,P9
9546,C94,,85.0%,Min,-357.5,P81,-19.03,P3,142.5,P72,-26.23,P33,12.09,P5,-34.06,P5,143.0,P72,36.14,P5
9546,C94,,85.0%,Max,684.3,P9,40.28,P9,277.5,P8,10.96,P4,297.6,P8,14.27,P4,279.6,P8,297.6,P8
9546,C94,,85.0%,Min,-370.9,P81,-10.85,P81,117.2,P72,0.1305,P5,26.42,P5,-8.202,P5,117.3,P76,27.66,P5
9546,C94,,88.8%,Max,684.3,P9,40.28,P9,281.6,P8,10.96,P4,387.6,P8,11.17,P4,283.7,P8,387.7,P8
9546,C94,,88.8%,Min,-370.9,P81,-10.85,P81,120.3,P72,0.1305,P5,71.59,P5,-15.31,P5,120.3,P76,73.21,P5
9546,C94,,92.5%,Max,684.3,P9,40.28,P9,285.7,P8,10.96,P4,478.9,P8,12.36,P81,287.7,P8,479.3,P8
9546,C94,,92.5%,Min,-370.9,P81,-10.85,P81,123.3,P72,0.1305,P5,117.7,P5,-27.02,P9,123.3,P72,119.9,P5
9546,C94,,96.3%,Max,684.3,P9,40.28,P9,289.8,P8,10.96,P4,571.5,P8,15.85,P81,291.8,P8,572.4,P8
9546,C94,,96.3%,Min,-370.9,P81,-10.85,P81,126.3,P72,0.1305,P5,164.9,P5,-39.98,P9,126.4,P72,167.5,P5
9546,C94,4882,100.0%,Max,684.3,P9,40.28,P9,293.9,P8,10.96,P4,665.5,P8,19.34,P81,295.9,P8,666.8,P8
9546,C94,4882,100.0%,Min,-370.9,P81,-10.85,P81,129.4,P72,0.1305,P5,213.0,P5,-52.95,P9,129.4,P72,216.1,P5
9547,C94,5089,0.0%,Max,831.9,P2,5.636,P2,-116.1,P4,0.1447,P4,352.1,P6,4.505,P2,316.9,P6,352.1,P6
9547,C94,5089,0.0%,Min,-752.7,P3,-18.49,P3,-316.9,P6,-11.96,P6,22.08,P5,-15.28,P3,116.1,P4,24.92,P5
9547,C94,,4.2%,Max,831.9,P2,5.636,P2,-112.8,P4,0.1447,P4,251.1,P4,6.062,P2,312.5,P6,251.1,P4
9547,C94,,4.2%,Min,-752.7,P3,-18.49,P3,-312.4,P6,-11.96,P6,-18.46,P5,-12.35,P3,112.8,P4,20.52,P5
9547,C94,,8.3%,Max,831.9,P2,5.636,P2,-109.5,P4,0.1447,P4,174.4,P4,7.618,P2,308.0,P6,174.5,P4
9547,C94,,8.3%,Min,-752.7,P3,-18.49,P3,-308.0,P6,-11.96,P6,-57.86,P5,-9.424,P3,109.6,P4,9.480,P3
9547,C94,,12.5%,Max,831.9,P2,5.636,P2,-106.3,P4,0.1447,P4,98.91,P4,9.174,P2,303.6,P6,99.12,P4
9547,C94,,12.5%,Min,-752.7,P3,-18.49,P3,-303.6,P6,-11.96,P6,-96.11,P5,-6.498,P3,106.3,P4,2.302,P39
9547,C94,,16.7%,Max,831.9,P2,5.636,P2,-103.0,P4,0.1447,P4,24.54,P4,10.73,P2,299.2,P6,133.2,P5
9547,C94,,16.7%,Min,-752.7,P3,-18.49,P3,-299.1,P6,-11.96,P6,-133.2,P5,-3.572,P3,103.0,P4,18.31,P2
9547,C94,,16.7%,Max,804.9,P2,4.389,P2,-91.50,P4,1.741,P4,17.40,P4,2.269,P9,271.0,P6,136.5,P5
9547,C94,,16.7%,Min,-696.0,P3,-2.828,P3,-271.0,P6,-7.209,P6,-136.5,P5,-0.3088,P81,91.54,P4,17.47,P4
9547,C94,,20.8%,Max,804.9,P2,4.389,P2,-88.21,P4,1.741,P4,-45.83,P4,2.486,P2,266.6,P6,195.6,P8
9547,C94,,20.8%,Min,-696.0,P3,-2.828,P3,-266.6,P6,-7.209,P6,-195.6,P8,-1.241,P3,88.26,P4,45.87,P4
9547,C94,,25.0%,Max,804.9,P2,4.389,P2,-84.93,P4,1.741,P4,-107.9,P4,3.346,P2,262.2,P6,282.3,P8
9547,C94,,25.0%,Min,-696.0,P3,-2.828,P3,-262.2,P6,-7.209,P6,-282.3,P8,-2.646,P3,84.98,P4,107.9,P4
9547,C94,,29.2%,Max,804.9,P2,4.389,P2,-81.65,P4,1.741,P4,-168.9,P4,4.206,P2,257.7,P6,368.9,P33
9547,C94,,29.2%,Min,-696.0,P3,-2.828,P3,-257.7,P6,-7.209,P6,-368.9,P33,-4.051,P3,81.70,P4,168.9,P4
9547,C94,,33.3%,Max,804.9,P2,4.389,P2,-78.36,P4,1.741,P4,-215.7,P60,5.067,P2,253.3,P6,455.5,P33
9547,C94,,33.3%,Min,-696.0,P3,-2.828,P3,-253.3,P6,-7.209,P6,-455.5,P33,-5.455,P3,78.42,P4,215.7,P60
9547,C94,,33.3%,Max,804.7,P2,6.243,P81,56.93,P4,9.196,P25,-213.5,P72,4.315,P81,56.94,P4,459.2,P33
9547,C94,,33.3%,Min,-615.2,P3,-17.81,P9,-17.63,P5,3.104,P57,-459.2,P33,-13.73,P9,4.002,P72,213.5,P72
9547,C94,,37.5%,Max,804.7,P2,6.243,P81,60.22,P4,9.196,P25,-211.6,P48,3.635,P2,60.22,P4,445.5,P33
9547,C94,,37.5%,Min,-615.2,P3,-17.81,P9,-14.34,P5,3.104,P57,-445.5,P33,-9.224,P3,6.504,P72,211.6,P48
9547,C94,,41.7%,Max,804.7,P2,6.243,P81,63.50,P4,9.196,P25,-203.1,P4,4.699,P2,63.50,P4,430.2,P33
9547,C94,,41.7%,Min,-615.2,P3,-17.81,P9,-11.06,P5,3.104,P57,-430.2,P33,-6.277,P3,9.495,P72,203.1,P4
9547,C94,,45.8%,Max,804.7,P2,6.243,P81,66.79,P4,9.196,P25,-191.1,P4,5.764,P2,66.79,P4,413.5,P31
9547,C94,,45.8%,Min,-615.2,P3,-17.81,P9,-7.777,P5,3.104,P57,-413.4,P31,-3.331,P3,12.63,P72,191.1,P4
9547,C94,,50.0%,Max,804.7,P2,6.243,P81,70.07,P4,9.196,P25,-177.2,P89,11.12,P9,70.07,P4,397.8,P6
9547,C94,,50.0%,Min,-615.2,P3,-17.81,P9,-4.493,P5,3.104,P57,-397.8,P6,-4.396,P81,12.86,P5,177.5,P89
9547,C94,,50.0%,Max,748.2,P2,4.110,P2,78.69,P8,10.61,P25,-174.8,P4,1.810,P2,78.72,P8,394.1,P6
9547,C94,,50.0%,Min,-524.5,P3,-4.833,P3,5.197,P5,4.068,P69,-394.1,P6,-1.797,P3,5.993,P5,174.8,P4
9547,C94,,54.2%,Max,748.2,P2,4.110,P2,83.12,P8,10.61,P25,-149.0,P4,2.793,P2,83.15,P8,371.0,P6
9547,C94,,54.2%,Min,-524.5,P3,-4.833,P3,8.481,P5,4.068,P69,-371.0,P6,-2.528,P3,8.991,P5,149.0,P4
9547,C94,,58.3%,Max,748.2,P2,4.110,P2,87.56,P8,10.61,P25,-122.0,P4,3.775,P2,87.59,P8,346.4,P6
9547,C94,,58.3%,Min,-524.5,P3,-4.833,P3,11.76,P5,4.068,P69,-346.4,P6,-3.259,P3,12.14,P5,122.1,P4
9547,C94,,62.5%,Max,748.2,P2,4.110,P2,91.99,P8,10.61,P25,-93.94,P4,4.758,P2,92.02,P8,320.3,P6
9547,C94,,62.5%,Min,-524.5,P3,-4.833,P3,15.05,P5,4.068,P69,-320.3,P6,-3.990,P3,15.34,P5,93.99,P4
9547,C94,,66.7%,Max,748.2,P2,4.110,P2,96.42,P8,10.61,P25,-64.69,P4,5.845,P84,96.45,P8,292.6,P6
9547,C94,,66.7%,Min,-524.5,P3,-4.833,P3,18.33,P5,4.068,P69,-292.6,P6,-4.756,P81,18.57,P5,64.80,P4
9547,C94,,66.7%,Max,734.2,P84,19.99,P4,311.4,P8,21.22,P6,-51.20,P4,11.54,P2,312.3,P8,267.7,P6
9547,C94,,66.7%,Min,-435.3,P81,-35.64,P5,131.9,P72,5.847,P85,-267.7,P6,-24.87,P3,132.6,P72,51.86,P4
9547,C94,,71.3%,Max,734.2,P84,19.99,P4,316.3,P8,21.22,P6,22.63,P4,16.18,P2,317.1,P8,167.3,P5
9547,C94,,71.3%,Min,-435.3,P81,-35.64,P5,135.6,P72,5.847,P85,-165.9,P5,-23.49,P3,136.2,P72,26.98,P4
9547,C94,,75.8%,Max,734.2,P84,19.99,P4,321.2,P8,21.22,P6,97.84,P4,21.17,P4,322.0,P8,111.2,P5
9547,C94,,75.8%,Min,-435.3,P81,-35.64,P5,139.2,P72,5.847,P85,-108.9,P5,-22.48,P5,139.8,P72,4.334,P44
9547,C94,,80.4%,Max,734.2,P84,19.99,P4,326.1,P8,21.22,P6,174.4,P4,27.64,P4,326.9,P8,176.6,P4
9547,C94,,80.4%,Min,-435.3,P81,-35.64,P5,142.8,P72,5.847,P85,-50.61,P5,-22.94,P5,143.4,P72,15.30,P70
9547,C94,,85.0%,Max,734.2,P84,19.99,P4,330.9,P8,21.22,P6,260.0,P8,34.11,P4,331.7,P8,261.3,P9
9547,C94,,85.0%,Min,-435.3,P81,-35.64,P5,146.4,P72,5.847,P85,9.109,P5,-23.40,P5,147.0,P72,25.11,P5
9547,C94,,85.0%,Max,867.3,P9,27.02,P81,287.3,P8,0.8228,P4,289.1,P8,14.56,P4,292.5,P8,289.1,P8
9547,C94,,85.0%,Min,-457.9,P81,-68.82,P9,121.3,P72,-9.999,P5,21.58,P5,-20.33,P5,121.7,P72,29.65,P5
9547,C94,,88.8%,Max,867.3,P9,27.02,P81,291.3,P8,0.8228,P4,379.8,P8,25.56,P4,296.5,P8,380.2,P8
9547,C94,,88.8%,Min,-457.9,P81,-68.82,P9,124.3,P72,-9.999,P5,66.29,P5,-17.70,P5,124.6,P72,68.61,P5
9547,C94,,92.5%,Max,867.3,P9,27.02,P81,295.3,P8,0.8228,P4,471.8,P8,45.78,P9,300.4,P8,473.0,P8
9547,C94,,92.5%,Min,-457.9,P81,-68.82,P9,127.2,P72,-9.999,P5,111.9,P5,-21.92,P81,127.6,P72,112.9,P5
9547,C94,,96.3%,Max,867.3,P9,27.02,P81,299.3,P8,0.8228,P4,565.0,P8,67.36,P9,304.3,P8,567.3,P8
9547,C94,,96.3%,Min,-457.9,P81,-68.82,P9,130.2,P72,-9.999,P5,158.5,P5,-30.39,P81,130.5,P72,159.0,P5
9547,C94,4883,100.0%,Max,867.3,P9,27.02,P81,303.3,P8,0.8228,P4,659.5,P8,88.94,P9,308.2,P8,663.0,P8
9547,C94,4883,100.0%,Min,-457.9,P81,-68.82,P9,133.1,P72,-9.999,P5,206.0,P5,-38.87,P81,133.4,P72,206.2,P5
9548,C94,4885,0.0%,Max,527.7,P2,25.05,P2,-120.3,P57,-1.427,P2,698.1,P24,22.91,P2,383.1,P24,698.4,P24
9548,C94,4885,0.0%,Min,-504.6,P3,-42.72,P3,-382.5,P24,-11.59,P24,143.4,P3,-43.21,P3,120.4,P57,149.7,P3
9548,C94,,6.3%,Max,527.7,P2,25.05,P2,-116.1,P57,-1.427,P2,527.3,P24,25.62,P2,377.3,P24,527.5,P24
9548,C94,,6.3%,Min,-504.6,P3,-42.72,P3,-376.8,P24,-11.59,P24,73.84,P3,-37.97,P3,116.2,P57,83.03,P3
9548,C94,,12.5%,Max,527.7,P2,25.05,P2,-111.9,P57,-1.427,P2,359.1,P24,28.34,P2,371.6,P24,359.1,P24
9548,C94,,12.5%,Min,-504.6,P3,-42.72,P3,-371.0,P24,-11.59,P24,6.213,P3,-32.73,P3,111.9,P57,27.42,P5
9548,C94,,18.8%,Max,527.7,P2,25.05,P2,-107.6,P57,-1.427,P2,240.6,P2,31.05,P2,365.9,P24,242.6,P2
9548,C94,,18.8%,Min,-504.6,P3,-42.72,P3,-365.3,P24,-11.59,P24,-59.51,P3,-27.50,P3,107.7,P57,3.410,P57
9548,C94,,25.0%,Max,527.7,P2,25.05,P2,-103.4,P57,-1.427,P2,142.0,P2,33.76,P2,360.2,P24,146.0,P2
9548,C94,,25.0%,Min,-504.6,P3,-42.72,P3,-359.6,P24,-11.59,P24,-123.3,P3,-22.26,P3,103.5,P57,2.752,P76
9548,C94,,25.0%,Max,481.8,P2,6.795,P2,-56.31,P57,-5.584,P2,105.2,P2,4.007,P2,234.6,P24,151.5,P3
9548,C94,,25.0%,Min,-477.3,P3,-11.92,P3,-234.5,P24,-16.70,P33,-151.1,P3,-10.10,P3,56.33,P57,3.855,P91
9548,C94,,31.2%,Max,481.8,P2,6.795,P2,-52.07,P57,-5.584,P2,37.52,P2,5.884,P2,228.9,P24,187.2,P3
9548,C94,,31.2%,Min,-477.3,P3,-11.92,P3,-228.8,P24,-16.70,P33,-187.0,P3,-9.676,P3,52.09,P57,25.41,P4
9548,C94,,37.5%,Max,481.8,P2,6.795,P2,-47.84,P57,-5.584,P2,-28.21,P2,7.761,P2,223.2,P24,247.4,P6
9548,C94,,37.5%,Min,-477.3,P3,-11.92,P3,-223.1,P24,-16.70,P33,-247.4,P6,-9.249,P3,47.86,P57,29.26,P2
9548,C94,,43.7%,Max,481.8,P2,6.795,P2,-43.60,P57,-5.584,P2,-92.04,P2,9.638,P2,217.5,P24,339.1,P24
9548,C94,,43.7%,Min,-477.3,P3,-11.92,P3,-217.4,P24,-16.70,P33,-339.1,P24,-8.821,P3,43.62,P57,92.54,P2
9548,C94,,50.0%,Max,481.8,P2,6.795,P2,-39.37,P57,-5.584,P2,-152.2,P56,11.51,P2,211.7,P24,435.7,P24
9548,C94,,50.0%,Min,-477.3,P3,-11.92,P3,-211.6,P24,-16.70,P33,-435.6,P24,-8.394,P3,39.39,P57,152.2,P56
9548,C94,,50.0%,Max,501.2,P2,11.86,P2,161.2,P33,37.11,P22,-134.4,P56,9.477,P2,161.2,P33,414.5,P24
9548,C94,,50.0%,Min,-493.7,P3,-19.73,P3,10.30,P60,14.35,P81,-414.4,P24,-17.91,P3,18.57,P60,134.5,P56
9548,C94,,56.2%,Max,501.2,P2,11.86,P2,166.9,P33,37.11,P22,-86.80,P57,11.53,P2,166.9,P33,358.3,P24
9548,C94,,56.2%,Min,-493.7,P3,-19.73,P3,14.53,P60,14.35,P81,-358.3,P24,-16.43,P3,21.21,P60,86.82,P57
9548,C94,,62.5%,Max,501.2,P2,11.86,P2,172.6,P33,37.11,P22,-36.95,P57,13.59,P2,172.6,P33,299.6,P24
9548,C94,,62.5%,Min,-493.7,P3,-19.73,P3,18.77,P60,14.35,P81,-299.6,P24,-14.94,P3,24.31,P60,36.96,P57
9548,C94,,68.7%,Max,501.2,P2,11.86,P2,178.3,P33,37.11,P22,14.80,P57,15.65,P2,178.4,P33,248.9,P12
9548,C94,,68.7%,Min,-493.7,P3,-19.73,P3,23.00,P60,14.35,P81,-248.9,P12,-13.46,P3,27.71,P60,5.626,P80
9548,C94,,75.0%,Max,501.2,P2,11.86,P2,184.0,P33,37.11,P22,68.46,P57,17.71,P2,184.1,P33,197.9,P12
9548,C94,,75.0%,Min,-493.7,P3,-19.73,P3,27.24,P60,14.35,P81,-197.6,P12,-11.97,P3,31.32,P60,0.5088,P43
9548,C94,,75.0%,Max,463.7,P2,10.10,P2,279.5,P33,-0.7428,P58,93.32,P57,6.514,P2,279.6,P33,170.5,P12
9548,C94,,75.0%,Min,-470.6,P3,-18.82,P3,59.65,P60,-11.17,P6,-170.2,P12,-13.50,P3,61.25,P60,0.3192,P71
9548,C94,,81.3%,Max,463.7,P2,10.10,P2,285.3,P33,-0.7428,P58,164.7,P57,10.02,P2,285.3,P33,164.7,P57
9548,C94,,81.3%,Min,-470.6,P3,-18.82,P3,63.88,P60,-11.17,P6,-142.2,P60,-13.08,P3,65.39,P60,1.999,P93
9548,C94,,87.5%,Max,463.7,P2,10.10,P2,291.0,P33,-0.7428,P58,261.7,P21,13.52,P2,291.0,P33,261.7,P21
9548,C94,,87.5%,Min,-470.6,P3,-18.82,P3,68.12,P60,-11.17,P6,-112.6,P60,-12.66,P3,69.53,P60,4.643,P52
9548,C94,,93.8%,Max,463.7,P2,10.10,P2,296.7,P33,-0.7428,P58,388.1,P21,17.02,P2,296.7,P33,388.1,P21
9548,C94,,93.8%,Min,-470.6,P3,-18.82,P3,72.36,P60,-11.17,P6,-80.95,P60,-12.24,P3,73.68,P60,6.615,P41
9548,C94,4886,100.0%,Max,463.7,P2,10.10,P2,302.4,P33,-0.7428,P58,517.1,P21,20.52,P2,302.4,P33,517.1,P21
9548,C94,4886,100.0%,Min,-470.6,P3,-18.82,P3,76.59,P60,-11.17,P6,-47.45,P60,-11.82,P3,77.85,P60,20.17,P36
9549,C94,5990,0.0%,Max,56.07,P2,2.416,P4,-187.0,P60,1.939,P2,590.1,P6,2.558,P4,466.7,P31,590.1,P6
9549,C94,5990,0.0%,Min,-103.4,P3,-5.715,P5,-466.7,P31,-1.608,P3,223.7,P3,-5.588,P5,187.0,P60,223.8,P3
9549,C94,,6.6%,Max,56.07,P2,2.416,P4,-182.7,P60,1.939,P2,379.9,P6,3.140,P4,460.9,P31,379.9,P6
9549,C94,,6.6%,Min,-103.4,P3,-5.715,P5,-460.9,P31,-1.608,P3,127.8,P3,-4.665,P5,182.7,P60,127.8,P3
9549,C94,,13.2%,Max,56.07,P2,2.416,P4,-178.4,P60,1.939,P2,172.4,P6,3.722,P4,455.1,P31,172.4,P6
9549,C94,,13.2%,Min,-103.4,P3,-5.715,P5,-455.1,P31,-1.608,P3,33.79,P3,-3.742,P5,178.4,P60,33.97,P3
9549,C94,,19.8%,Max,56.07,P2,2.416,P4,-174.1,P60,1.939,P2,17.18,P2,4.304,P4,449.3,P31,58.27,P3
9549,C94,,19.8%,Min,-103.4,P3,-5.715,P5,-449.3,P31,-1.608,P3,-58.22,P3,-2.818,P5,174.1,P60,5.992,P53
9549,C94,,26.4%,Max,56.07,P2,2.416,P4,-169.8,P60,1.939,P2,-88.69,P49,4.887,P4,443.5,P31,248.6,P33
9549,C94,,26.4%,Min,-103.4,P3,-5.715,P5,-443.5,P31,-1.608,P3,-248.6,P33,-1.895,P5,169.8,P60,88.71,P49
9549,C94,,26.4%,Max,8.020,P4,2.068,P4,-143.4,P2,2.047,P7,-116.5,P48,1.691,P4,381.1,P31,317.1,P33
9549,C94,,26.4%,Min,-58.83,P5,-4.559,P5,-381.1,P31,-0.7144,P5,-317.1,P33,-3.591,P5,143.4,P2,116.5,P48
9549,C94,,33.0%,Max,8.020,P4,2.068,P4,-139.1,P2,2.047,P7,-184.8,P48,2.455,P4,375.3,P31,489.3,P33
9549,C94,,33.0%,Min,-58.83,P5,-4.559,P5,-375.3,P31,-0.7144,P5,-489.3,P33,-3.219,P5,139.1,P2,184.8,P48
9549,C94,,39.6%,Max,8.020,P4,2.068,P4,-134.8,P2,2.047,P7,-251.2,P48,3.220,P4,369.5,P31,658.8,P33
9549,C94,,39.6%,Min,-58.83,P5,-4.559,P5,-369.5,P31,-0.7144,P5,-658.8,P33,-2.847,P5,134.8,P2,251.2,P48
9549,C94,,46.2%,Max,8.020,P4,2.068,P4,-130.5,P2,2.047,P7,-314.2,P2,3.985,P4,363.7,P31,825.7,P33
9549,C94,,46.2%,Min,-58.83,P5,-4.559,P5,-363.7,P31,-0.7144,P5,-825.7,P33,-2.475,P5,130.5,P2,314.3,P2
9549,C94,,52.8%,Max,8.020,P4,2.068,P4,-126.2,P2,2.047,P7,-373.6,P2,4.749,P4,357.9,P31,990.0,P33
9549,C94,,52.8%,Min,-58.83,P5,-4.559,P5,-357.9,P31,-0.7144,P5,-990.0,P33,-2.103,P5,126.2,P2,373.6,P2
9549,C94,,52.8%,Max,-10.19,P55,2.517,P4,319.3,P24,8.334,P7,-355.4,P2,1.983,P4,319.3,P24,964.7,P33
9549,C94,,52.8%,Min,-60.88,P25,-3.743,P5,112.2,P69,-0.8177,P68,-964.7,P33,-2.831,P5,112.2,P69,355.4,P2
9549,C94,,58.7%,Max,-10.19,P55,2.517,P4,324.5,P24,8.334,P7,-282.1,P2,2.315,P4,324.5,P24,840.7,P33
9549,C94,,58.7%,Min,-60.88,P25,-3.743,P5,116.0,P69,-0.8177,P68,-840.7,P33,-2.662,P5,116.0,P69,282.1,P2
9549,C94,,64.6%,Max,-10.19,P55,2.517,P4,329.7,P24,8.334,P7,-207.2,P2,2.647,P4,329.7,P24,714.5,P33
9549,C94,,64.6%,Min,-60.88,P25,-3.743,P5,119.9,P69,-0.8177,P68,-714.5,P33,-2.493,P5,119.9,P69,207.2,P2
9549,C94,,70.5%,Max,-10.19,P55,2.517,P4,334.9,P24,8.334,P7,-130.8,P2,2.979,P4,334.9,P24,586.2,P33
9549,C94,,70.5%,Min,-60.88,P25,-3.743,P5,123.7,P69,-0.8177,P68,-586.2,P33,-2.325,P5,123.7,P69,130.8,P2
9549,C94,,76.4%,Max,-10.19,P55,2.517,P4,340.1,P24,8.334,P7,-52.83,P2,3.311,P4,340.1,P24,455.7,P33
9549,C94,,76.4%,Min,-60.88,P25,-3.743,P5,127.6,P69,-0.8177,P68,-455.7,P33,-2.156,P5,127.6,P69,52.90,P2
9549,C94,,76.4%,Max,2.025,P2,2.037,P4,410.3,P24,8.725,P25,-25.66,P2,0.9418,P2,410.3,P24,409.4,P33
9549,C94,,76.4%,Min,-84.80,P13,-2.726,P5,153.2,P69,-0.4626,P68,-409.4,P33,-1.769,P3,153.2,P69,25.68,P2
9549,C94,,82.3%,Max,2.025,P2,2.037,P4,415.5,P24,8.725,P25,67.69,P2,1.463,P4,415.5,P24,265.8,P3
9549,C94,,82.3%,Min,-84.80,P13,-2.726,P5,157.0,P69,-0.4626,P68,-265.8,P3,-2.009,P5,157.0,P69,13.53,P48
9549,C94,,88.2%,Max,2.025,P2,2.037,P4,420.7,P24,8.725,P25,162.6,P2,2.021,P4,420.7,P24,187.4,P3
9549,C94,,88.2%,Min,-84.80,P13,-2.726,P5,160.9,P69,-0.4626,P68,-187.4,P3,-2.286,P5,160.9,P69,1.021,P25
9549,C94,,94.1%,Max,2.025,P2,2.037,P4,425.9,P24,8.725,P25,259.1,P2,2.579,P4,425.9,P24,259.1,P2
9549,C94,,94.1%,Min,-84.80,P13,-2.726,P5,164.7,P69,-0.4626,P68,-107.5,P3,-2.562,P5,164.7,P69,3.744,P67
9549,C94,5138,100.0%,Max,2.025,P2,2.037,P4,431.1,P24,8.725,P25,358.6,P12,3.137,P4,431.1,P24,358.6,P12
9549,C94,5138,100.0%,Min,-84.80,P13,-2.726,P5,168.6,P69,-0.4626,P68,-25.95,P3,-2.839,P5,168.6,P69,18.18,P5
9550,C94,4819,0.0%,Max,88.57,P79,106.4,P75,7.073,P4,-11.92,P69,314.2,P4,139.2,P75,213.2,P12,413.8,P5
9550,C94,4819,0.0%,Min,-161.1,P5,-104.3,P92,-207.3,P12,-38.29,P24,-408.8,P5,-135.1,P92,54.08,P63,37.37,P1
9550,C94,,6.2%,Max,88.57,P79,106.4,P75,11.17,P4,-11.92,P69,243.5,P4,92.91,P75,207.8,P12,408.7,P5
9550,C94,,6.2%,Min,-161.1,P5,-104.3,P92,-201.8,P12,-38.29,P24,-405.0,P5,-89.68,P92,50.14,P63,20.55,P31
9550,C94,,12.5%,Max,88.57,P79,106.4,P75,15.27,P4,-11.92,P69,184.9,P48,57.18,P2,202.4,P12,402.0,P5
9550,C94,,12.5%,Min,-161.1,P5,-104.3,P92,-196.2,P12,-38.29,P24,-399.4,P5,-50.25,P3,46.22,P63,15.41,P18
9550,C94,,18.7%,Max,88.57,P79,106.4,P75,19.38,P4,-11.92,P69,129.6,P48,41.18,P2,197.1,P12,393.7,P5
9550,C94,,18.7%,Min,-161.1,P5,-104.3,P92,-190.7,P12,-38.29,P24,-392.1,P5,-39.79,P3,42.34,P63,2.118,P66
9550,C94,,25.0%,Max,88.57,P79,106.4,P75,23.48,P4,-11.92,P69,76.18,P48,46.57,P92,191.7,P12,384.4,P3
9550,C94,,25.0%,Min,-161.1,P5,-104.3,P92,-185.2,P12,-38.29,P24,-383.2,P3,-46.11,P75,38.51,P63,13.74,P62
9550,C94,,25.0%,Max,41.30,P2,2.136,P75,46.55,P4,-4.305,P69,64.29,P48,0.9700,P2,140.8,P12,385.0,P3
9550,C94,,25.0%,Min,-121.8,P3,-1.990,P92,-140.8,P12,-18.83,P25,-385.0,P3,-0.4951,P3,18.06,P63,0.9962,P44
9550,C94,,31.2%,Max,41.30,P2,2.136,P75,50.65,P4,-4.305,P69,21.20,P48,1.152,P2,135.2,P12,367.6,P3
9550,C94,,31.2%,Min,-121.8,P3,-1.990,P92,-135.2,P12,-18.83,P25,-367.6,P3,-0.8409,P3,13.96,P63,2.255,P36
9550,C94,,37.5%,Max,41.30,P2,2.136,P75,54.75,P4,-4.305,P69,-20.11,P48,1.539,P68,129.7,P12,383.7,P8
9550,C94,,37.5%,Min,-121.8,P3,-1.990,P92,-129.7,P12,-18.83,P25,-383.7,P8,-1.187,P3,9.856,P63,20.12,P48
9550,C94,,43.7%,Max,41.30,P2,2.136,P75,58.85,P4,-4.305,P69,-59.63,P48,2.400,P68,124.2,P12,412.9,P8
9550,C94,,43.7%,Min,-121.8,P3,-1.990,P92,-124.2,P12,-18.83,P25,-412.9,P8,-1.967,P75,5.759,P63,59.64,P48
9550,C94,,50.0%,Max,41.30,P2,2.136,P75,62.95,P4,-4.305,P69,-97.36,P48,3.260,P68,118.6,P12,439.6,P8
9550,C94,,50.0%,Min,-121.8,P3,-1.990,P92,-118.6,P12,-18.83,P25,-439.6,P8,-2.898,P75,1.680,P63,97.38,P48
9550,C94,,50.0%,Max,128.4,P2,5.987,P2,190.3,P27,15.21,P24,-99.98,P48,4.743,P2,190.3,P27,440.6,P8
9550,C94,,50.0%,Min,-206.6,P3,-4.821,P3,9.571,P3,4.100,P3,-440.6,P8,-3.475,P3,10.72,P3,100.0,P48
9550,C94,,56.2%,Max,128.4,P2,5.987,P2,195.9,P27,15.21,P24,-92.35,P48,4.801,P2,195.9,P27,358.4,P8
9550,C94,,56.2%,Min,-206.6,P3,-4.821,P3,13.67,P3,4.100,P3,-358.4,P8,-4.041,P3,14.50,P3,92.36,P48
9550,C94,,62.5%,Max,128.4,P2,5.987,P2,201.4,P27,15.21,P24,-60.48,P2,4.859,P2,201.4,P27,273.8,P8
9550,C94,,62.5%,Min,-206.6,P3,-4.821,P3,17.77,P3,4.100,P3,-273.8,P8,-4.607,P3,18.42,P3,60.68,P2
9550,C94,,68.7%,Max,128.4,P2,5.987,P2,206.9,P27,15.21,P24,-1.124,P4,4.917,P2,206.9,P27,187.2,P5
9550,C94,,68.7%,Min,-206.6,P3,-4.821,P3,21.87,P3,4.100,P3,-187.1,P5,-5.172,P3,22.40,P3,4.310,P4
9550,C94,,75.0%,Max,128.4,P2,5.987,P2,212.5,P27,15.21,P24,61.64,P4,4.974,P2,212.5,P27,150.8,P5
9550,C94,,75.0%,Min,-206.6,P3,-4.821,P3,25.97,P3,4.100,P3,-150.8,P5,-5.738,P3,26.42,P3,15.58,P75
9550,C94,,75.0%,Max,196.4,P2,10.81,P7,241.6,P27,22.37,P24,77.24,P4,6.993,P25,241.8,P27,148.2,P5
9550,C94,,75.0%,Min,-297.0,P3,1.618,P93,39.48,P3,7.459,P3,-148.1,P5,1.088,P3,39.56,P3,7.818,P75
9550,C94,,81.2%,Max,196.4,P2,10.81,P7,247.1,P27,22.37,P24,173.0,P4,4.304,P2,247.3,P27,173.0,P4
9550,C94,,81.2%,Min,-297.0,P3,1.618,P93,43.58,P3,7.459,P3,-129.2,P5,-1.708,P3,43.65,P3,1.595,P72
9550,C94,,87.5%,Max,196.4,P2,10.81,P7,252.6,P27,22.37,P24,270.5,P4,2.675,P4,252.8,P27,270.5,P4
9550,C94,,87.5%,Min,-297.0,P3,1.618,P93,47.68,P3,7.459,P3,-108.6,P5,-4.755,P5,47.75,P3,0.6613,P82
9550,C94,,93.7%,Max,196.4,P2,10.81,P7,258.2,P27,22.37,P24,369.7,P4,1.376,P4,258.4,P27,369.7,P4
9550,C94,,93.7%,Min,-297.0,P3,1.618,P93,51.78,P3,7.459,P3,-86.09,P5,-8.132,P5,51.84,P3,2.045,P58
9550,C94,5018,100.0%,Max,196.4,P2,10.81,P7,263.7,P27,22.37,P24,470.8,P4,0.07589,P4,263.9,P27,470.8,P4
9550,C94,5018,100.0%,Min,-297.0,P3,1.618,P93,55.88,P3,7.459,P3,-61.83,P5,-12.31,P7,55.94,P3,16.52,P60
9551,C94,7373,0.0%,Max,552.8,P2,43.91,P4,41.96,P4,13.06,P25,784.7,P4,30.04,P4,332.9,P21,785.3,P4
9551,C94,7373,0.0%,Min,-690.9,P3,-37.80,P5,-332.8,P21,-0.2192,P69,-649.9,P5,-30.62,P5,7.197,P48,8.731,P29
9551,C94,,5.5%,Max,552.8,P2,43.91,P4,44.79,P4,13.06,P25,700.4,P4,26.72,P4,329.1,P21,701.0,P4
9551,C94,,5.5%,Min,-690.9,P3,-37.80,P5,-329.0,P21,-0.2192,P69,-637.0,P5,-29.15,P5,4.492,P48,4.858,P87
9551,C94,,11.0%,Max,552.8,P2,43.91,P4,47.62,P4,13.06,P25,617.0,P4,23.41,P4,325.3,P21,623.8,P5
9551,C94,,11.0%,Min,-690.9,P3,-37.80,P5,-325.2,P21,-0.2192,P69,-623.2,P5,-27.67,P5,2.144,P48,6.834,P27
9551,C94,,16.5%,Max,552.8,P2,43.91,P4,50.46,P4,13.06,P25,534.4,P4,20.10,P4,321.5,P21,609.2,P5
9551,C94,,16.5%,Min,-690.9,P3,-37.80,P5,-321.3,P21,-0.2192,P69,-608.6,P5,-26.20,P5,1.402,P36,4.574,P9
9551,C94,,22.0%,Max,552.8,P2,43.91,P4,53.29,P4,13.06,P25,452.6,P4,17.49,P2,317.6,P21,593.6,P5
9551,C94,,22.0%,Min,-690.9,P3,-37.80,P5,-317.5,P21,-0.2192,P69,-593.1,P5,-25.42,P3,1.430,P60,37.52,P78
9551,C94,,22.0%,Max,378.0,P2,5.085,P2,76.93,P4,10.13,P13,435.3,P4,1.959,P55,275.5,P21,588.6,P5
9551,C94,,22.0%,Min,-492.3,P3,-6.799,P3,-275.5,P21,-0.7600,P69,-588.6,P5,-5.256,P3,1.617,P64,26.11,P30
9551,C94,,27.5%,Max,378.0,P2,5.085,P2,79.76,P4,10.13,P13,360.7,P4,2.945,P2,271.7,P21,565.4,P5
9551,C94,,27.5%,Min,-492.3,P3,-6.799,P3,-271.7,P21,-0.7600,P69,-565.4,P5,-5.786,P3,1.169,P41,3.811,P78
9551,C94,,33.0%,Max,378.0,P2,5.085,P2,82.60,P4,10.13,P13,287.0,P4,3.990,P2,267.9,P21,541.3,P5
9551,C94,,33.0%,Min,-492.3,P3,-6.799,P3,-267.9,P21,-0.7600,P69,-541.3,P5,-6.315,P3,1.773,P65,10.65,P79
9551,C94,,38.5%,Max,378.0,P2,5.085,P2,85.43,P4,10.13,P13,214.2,P4,5.035,P2,264.1,P21,516.4,P5
9551,C94,,38.5%,Min,-492.3,P3,-6.799,P3,-264.0,P21,-0.7600,P69,-516.4,P5,-6.845,P3,4.168,P65,0.8678,P81
9551,C94,,44.0%,Max,378.0,P2,5.085,P2,88.26,P4,10.13,P13,142.2,P4,6.080,P2,260.2,P21,490.7,P5
9551,C94,,44.0%,Min,-492.3,P3,-6.799,P3,-260.2,P21,-0.7600,P69,-490.6,P5,-7.375,P3,2.469,P72,2.260,P55
9551,C94,,44.0%,Max,244.1,P2,2.197,P69,270.9,P4,-0.8629,P93,111.3,P4,2.596,P69,270.9,P4,491.8,P5
9551,C94,,44.0%,Min,-338.1,P3,-6.491,P5,-57.00,P5,-3.662,P6,-491.7,P5,-7.272,P3,3.096,P43,5.309,P93
9551,C94,,51.0%,Max,244.1,P2,2.197,P69,275.5,P12,-0.8629,P93,91.17,P4,2.426,P2,275.6,P12,388.3,P5
9551,C94,,51.0%,Min,-338.1,P3,-6.491,P5,-53.39,P5,-3.662,P6,-388.2,P5,-5.843,P3,1.982,P43,1.430,P93
9551,C94,,58.0%,Max,244.1,P2,2.197,P69,280.4,P12,-0.8629,P93,72.44,P4,2.812,P2,280.4,P12,283.4,P5
9551,C94,,58.0%,Min,-338.1,P3,-6.491,P5,-49.78,P5,-3.662,P6,-283.4,P5,-4.413,P3,2.632,P67,0.8220,P92
9551,C94,,65.0%,Max,244.1,P2,2.197,P69,285.2,P12,-0.8629,P93,55.10,P4,3.210,P4,285.3,P12,177.2,P5
9551,C94,,65.0%,Min,-338.1,P3,-6.491,P5,-46.17,P5,-3.662,P6,-177.2,P5,-2.997,P5,2.922,P67,3.902,P67
9551,C94,,72.0%,Max,244.1,P2,2.197,P69,290.1,P12,-0.8629,P93,39.14,P4,3.670,P4,290.2,P12,69.55,P5
9551,C94,,72.0%,Min,-338.1,P3,-6.491,P5,-42.56,P5,-3.662,P6,-69.54,P5,-1.642,P5,2.039,P56,0.7832,P66
9551,C94,,72.0%,Max,171.4,P4,3.459,P2,332.6,P12,-1.331,P69,38.55,P4,2.396,P2,332.7,P12,39.57,P5
9551,C94,,72.0%,Min,-258.9,P5,-9.639,P3,-21.67,P5,-6.585,P6,-39.16,P5,-6.914,P3,1.863,P45,0.4084,P19
9551,C94,,79.0%,Max,171.4,P4,3.459,P2,337.5,P12,-1.331,P69,140.5,P4,3.777,P2,337.6,P12,140.6,P4
9551,C94,,79.0%,Min,-258.9,P5,-9.639,P3,-18.06,P5,-6.585,P6,-29.47,P5,-5.927,P3,1.388,P69,10.52,P55
9551,C94,,86.0%,Max,171.4,P4,3.459,P2,342.4,P12,-1.331,P69,246.1,P2,5.158,P2,342.4,P12,246.2,P2
9551,C94,,86.0%,Min,-258.9,P5,-9.639,P3,-14.45,P5,-6.585,P6,-20.61,P3,-4.940,P3,2.813,P69,18.78,P5
9551,C94,,93.0%,Max,171.4,P4,3.459,P2,347.2,P12,-1.331,P69,368.6,P12,6.539,P2,347.3,P12,368.6,P12
9551,C94,,93.0%,Min,-258.9,P5,-9.639,P3,-10.84,P5,-6.585,P6,-10.48,P3,-3.952,P3,6.320,P69,6.565,P5
9551,C94,5989,100.0%,Max,171.4,P4,3.459,P2,352.1,P12,-1.331,P69,502.6,P12,7.921,P2,352.2,P12,502.6,P12
9551,C94,5989,100.0%,Min,-258.9,P5,-9.639,P3,-7.233,P5,-6.585,P6,1.023,P3,-2.965,P3,9.900,P69,3.137,P3
9552,C94,5971,0.0%,Max,10.50,P2,19.69,P2,-86.74,P2,0.2729,P2,435.3,P2,10.74,P2,375.3,P25,435.4,P2
9552,C94,5971,0.0%,Min,-79.48,P3,-13.22,P69,-375.1,P25,-6.435,P3,-66.45,P3,-8.634,P69,88.95,P2,14.41,P55
9552,C94,,4.6%,Max,10.50,P2,19.69,P2,-83.58,P2,0.2729,P2,338.1,P2,10.22,P2,371.1,P25,338.2,P2
9552,C94,,4.6%,Min,-79.48,P3,-13.22,P69,-370.8,P25,-6.435,P3,-96.29,P3,-9.632,P3,85.87,P2,1.916,P67
9552,C94,,9.1%,Max,10.50,P2,19.69,P2,-80.42,P2,0.2729,P2,241.9,P2,9.711,P2,366.8,P25,242.1,P2
9552,C94,,9.1%,Min,-79.48,P3,-13.22,P69,-366.6,P25,-6.435,P3,-125.1,P3,-11.82,P3,82.79,P2,1.531,P68
9552,C94,,13.7%,Max,10.50,P2,19.69,P2,-77.25,P2,0.2729,P2,146.8,P2,9.198,P2,362.5,P25,153.4,P3
9552,C94,,13.7%,Min,-79.48,P3,-13.22,P69,-362.3,P25,-6.435,P3,-152.8,P3,-14.01,P3,79.72,P2,2.000,P59
9552,C94,,18.2%,Max,10.50,P2,19.69,P2,-74.09,P2,0.2729,P2,52.77,P2,9.142,P69,358.3,P25,190.5,P19
9552,C94,,18.2%,Min,-79.48,P3,-13.22,P69,-358.0,P25,-6.435,P3,-190.5,P19,-16.20,P3,76.66,P2,13.17,P85
9552,C94,,18.2%,Max,13.16,P2,3.743,P4,-29.72,P2,-1.086,P46,35.03,P2,2.054,P4,265.3,P25,200.7,P19
9552,C94,,18.2%,Min,-92.09,P3,-5.031,P5,-265.3,P25,-7.427,P8,-200.7,P19,-4.913,P5,29.95,P2,22.87,P85
9552,C94,,22.8%,Max,13.16,P2,3.743,P4,-26.56,P2,-1.086,P46,-21.76,P2,2.232,P2,261.0,P25,266.3,P31
9552,C94,,22.8%,Min,-92.09,P3,-5.031,P5,-261.0,P25,-7.427,P8,-266.3,P31,-4.658,P3,26.82,P2,21.88,P2
9552,C94,,27.3%,Max,13.16,P2,3.743,P4,-23.39,P2,-1.086,P46,-77.49,P2,2.603,P2,256.7,P25,336.9,P6
9552,C94,,27.3%,Min,-92.09,P3,-5.031,P5,-256.7,P25,-7.427,P8,-336.8,P6,-4.597,P3,23.69,P2,77.54,P2
9552,C94,,31.9%,Max,13.16,P2,3.743,P4,-20.23,P2,-1.086,P46,-127.9,P69,2.974,P2,252.4,P25,415.3,P6
9552,C94,,31.9%,Min,-92.09,P3,-5.031,P5,-252.4,P25,-7.427,P8,-415.3,P6,-4.535,P3,20.57,P2,127.9,P69
9552,C94,,36.4%,Max,13.16,P2,3.743,P4,-17.07,P2,-1.086,P46,-143.9,P69,3.893,P69,248.2,P25,497.9,P24
9552,C94,,36.4%,Min,-92.09,P3,-5.031,P5,-248.2,P25,-7.427,P8,-497.9,P24,-4.474,P3,17.46,P2,143.9,P69
9552,C94,,36.4%,Max,42.86,P2,6.653,P4,11.79,P2,0.9347,P2,-146.6,P69,3.798,P4,193.7,P3,515.0,P24
9552,C94,,36.4%,Min,-127.0,P3,-8.093,P5,-193.5,P3,-2.971,P3,-515.0,P24,-4.923,P5,7.074,P4,146.6,P69
9552,C94,,41.0%,Max,42.86,P2,6.653,P4,14.95,P2,0.9347,P2,-153.0,P69,4.357,P4,190.5,P3,575.8,P24
9552,C94,,41.0%,Min,-127.0,P3,-8.093,P5,-190.4,P3,-2.971,P3,-575.8,P24,-4.999,P5,6.697,P4,153.0,P69
9552,C94,,45.5%,Max,42.86,P2,6.653,P4,18.11,P2,0.9347,P2,-158.3,P69,4.916,P4,187.4,P3,635.2,P24
9552,C94,,45.5%,Min,-127.0,P3,-8.093,P5,-187.2,P3,-2.971,P3,-635.2,P24,-5.075,P5,7.725,P4,158.3,P69
9552,C94,,50.1%,Max,42.86,P2,6.653,P4,21.28,P2,0.9347,P2,-162.5,P69,5.476,P4,184.2,P3,693.2,P24
9552,C94,,50.1%,Min,-127.0,P3,-8.093,P5,-184.0,P3,-2.971,P3,-693.2,P24,-5.150,P5,9.494,P67,162.6,P69
9552,C94,,54.6%,Max,42.86,P2,6.653,P4,24.44,P2,0.9347,P2,-165.7,P69,6.035,P4,181.0,P3,749.7,P24
9552,C94,,54.6%,Min,-127.0,P3,-8.093,P5,-180.9,P3,-2.971,P3,-749.7,P24,-5.226,P5,6.652,P67,165.8,P69
9552,C94,,54.6%,Max,116.5,P2,4.759,P4,296.6,P31,5.389,P2,-175.4,P69,4.696,P4,296.6,P31,774.7,P24
9552,C94,,54.6%,Min,-221.3,P3,-4.218,P5,24.58,P3,-3.237,P3,-774.7,P24,-3.942,P5,24.75,P3,175.4,P69
9552,C94,,60.3%,Max,116.5,P2,4.759,P4,302.0,P31,5.389,P2,-90.50,P2,4.352,P4,302.0,P31,676.4,P25
9552,C94,,60.3%,Min,-221.3,P3,-4.218,P5,28.52,P3,-3.237,P3,-676.4,P25,-3.825,P5,28.67,P3,90.56,P2
9552,C94,,66.0%,Max,116.5,P2,4.759,P4,307.3,P31,5.389,P2,1.746,P2,4.008,P4,307.3,P31,586.5,P13
9552,C94,,66.0%,Min,-221.3,P3,-4.218,P5,32.46,P3,-3.237,P3,-586.5,P13,-3.708,P5,32.59,P3,3.546,P2
9552,C94,,71.6%,Max,116.5,P2,4.759,P4,312.6,P31,5.389,P2,95.64,P2,3.665,P4,312.6,P31,531.7,P3
9552,C94,,71.6%,Min,-221.3,P3,-4.218,P5,36.40,P3,-3.237,P3,-531.7,P3,-3.591,P5,36.51,P3,0.8409,P66
9552,C94,,77.3%,Max,116.5,P2,4.759,P4,317.9,P31,5.389,P2,191.2,P2,3.321,P4,317.9,P31,513.5,P3
9552,C94,,77.3%,Min,-221.3,P3,-4.218,P5,40.34,P3,-3.237,P3,-513.5,P3,-3.473,P5,40.44,P3,13.59,P90
9552,C94,,77.3%,Max,161.1,P2,10.67,P2,403.4,P31,5.027,P2,229.7,P2,9.352,P2,403.4,P31,502.1,P3
9552,C94,,77.3%,Min,-336.9,P3,-7.459,P3,83.35,P3,-6.684,P3,-502.1,P3,-6.079,P3,83.68,P3,7.464,P18
9552,C94,,83.0%,Max,161.1,P2,10.67,P2,408.7,P31,5.027,P2,343.5,P2,8.982,P2,408.7,P31,465.3,P3
9552,C94,,83.0%,Min,-336.9,P3,-7.459,P3,87.29,P3,-6.684,P3,-465.3,P3,-7.052,P3,87.61,P3,0.2782,P87
9552,C94,,88.7%,Max,161.1,P2,10.67,P2,414.1,P31,5.027,P2,458.9,P2,8.612,P2,414.1,P31,459.0,P2
9552,C94,,88.7%,Min,-336.9,P3,-7.459,P3,91.23,P3,-6.684,P3,-426.8,P3,-8.024,P3,91.54,P3,3.363,P34
9552,C94,,94.3%,Max,161.1,P2,10.67,P2,419.4,P31,5.027,P2,576.0,P2,8.242,P2,419.4,P31,576.1,P2
9552,C94,,94.3%,Min,-336.9,P3,-7.459,P3,95.17,P3,-6.684,P3,-386.8,P3,-8.997,P3,95.46,P3,2.826,P71
9552,C94,7363,100.0%,Max,161.1,P2,10.67,P2,424.7,P31,5.027,P2,707.3,P21,7.873,P2,424.7,P31,707.4,P21
9552,C94,7363,100.0%,Min,-336.9,P3,-7.459,P3,99.11,P3,-6.684,P3,-345.0,P3,-9.969,P3,99.39,P3,40.89,P85
9553,C94,7362,0.0%,Max,222.2,P2,58.42,P4,-24.08,P2,2.376,P48,572.8,P2,54.49,P4,327.6,P21,574.6,P2
9553,C94,7362,0.0%,Min,-264.1,P3,-32.37,P55,-327.1,P21,-8.639,P21,-525.0,P3,-29.89,P55,49.26,P48,13.21,P35
9553,C94,,5.5%,Max,222.2,P2,58.42,P4,-21.24,P2,2.376,P48,496.4,P2,42.72,P4,323.8,P21,532.2,P3
9553,C94,,5.5%,Min,-264.1,P3,-32.37,P55,-323.2,P21,-8.639,P21,-532.0,P3,-21.98,P5,46.52,P48,10.64,P11
9553,C94,,11.0%,Max,222.2,P2,58.42,P4,-18.40,P2,2.376,P48,420.9,P2,30.95,P4,319.9,P21,538.4,P3
9553,C94,,11.0%,Min,-264.1,P3,-32.37,P55,-319.4,P21,-8.639,P21,-538.2,P3,-20.12,P5,43.78,P48,6.252,P78
9553,C94,,16.5%,Max,222.2,P2,58.42,P4,-15.57,P2,2.376,P48,346.2,P2,19.18,P4,316.1,P21,543.7,P3
9553,C94,,16.5%,Min,-264.1,P3,-32.37,P55,-315.6,P21,-8.639,P21,-543.5,P3,-18.26,P5,41.06,P48,0.6599,P87
9553,C94,,22.0%,Max,222.2,P2,58.42,P4,-12.73,P2,2.376,P48,272.3,P2,9.101,P55,312.3,P21,548.2,P3
9553,C94,,22.0%,Min,-264.1,P3,-32.37,P55,-311.8,P21,-8.639,P21,-548.0,P3,-16.40,P5,38.35,P48,5.648,P18
9553,C94,,22.0%,Max,159.3,P2,21.48,P2,20.05,P2,4.404,P2,256.3,P2,11.65,P4,257.7,P21,547.9,P3
9553,C94,,22.0%,Min,-181.8,P3,-10.64,P67,-257.6,P21,-3.685,P69,-547.9,P3,-5.939,P67,21.32,P4,2.224,P20
9553,C94,,27.4%,Max,159.3,P2,21.48,P2,22.88,P2,4.404,P2,191.0,P2,10.38,P4,253.8,P21,541.8,P3
9553,C94,,27.4%,Min,-181.8,P3,-10.64,P67,-253.8,P21,-3.685,P69,-541.7,P3,-7.141,P5,19.89,P48,3.091,P56
9553,C94,,32.9%,Max,159.3,P2,21.48,P2,25.72,P2,4.404,P2,126.5,P2,9.330,P2,250.0,P21,534.8,P3
9553,C94,,32.9%,Min,-181.8,P3,-10.64,P67,-250.0,P21,-3.685,P69,-534.7,P3,-9.646,P3,18.47,P48,2.301,P43
9553,C94,,38.4%,Max,159.3,P2,21.48,P2,28.55,P2,4.404,P2,62.79,P2,8.328,P2,246.2,P21,527.0,P3
9553,C94,,38.4%,Min,-181.8,P3,-10.64,P67,-246.2,P21,-3.685,P69,-526.9,P3,-12.20,P3,17.39,P48,7.790,P69
9553,C94,,43.9%,Max,159.3,P2,21.48,P2,31.39,P2,4.404,P2,-0.01515,P2,7.327,P2,242.4,P21,535.8,P13
9553,C94,,43.9%,Min,-181.8,P3,-10.64,P67,-242.3,P21,-3.685,P69,-535.7,P13,-14.75,P3,16.73,P48,7.327,P2
9553,C94,,43.9%,Max,119.8,P2,13.10,P2,240.1,P2,1.072,P4,-34.93,P2,10.49,P2,240.4,P2,585.3,P25
9553,C94,,43.9%,Min,-119.8,P3,-7.986,P69,-59.10,P3,-0.4516,P5,-585.3,P25,-6.701,P69,5.502,P43,36.47,P2
9553,C94,,50.9%,Max,119.8,P2,13.10,P2,243.7,P2,1.072,P4,-56.00,P2,9.334,P2,244.0,P2,508.4,P25
9553,C94,,50.9%,Min,-119.8,P3,-7.986,P69,-55.48,P3,-0.4516,P5,-508.4,P25,-7.157,P3,4.871,P66,56.78,P2
9553,C94,,57.9%,Max,119.8,P2,13.10,P2,247.3,P2,1.072,P4,-75.69,P2,8.178,P2,247.7,P2,429.5,P25
9553,C94,,57.9%,Min,-119.8,P3,-7.986,P69,-51.85,P3,-0.4516,P5,-429.5,P25,-8.004,P3,6.319,P66,76.13,P2
9553,C94,,64.9%,Max,119.8,P2,13.10,P2,250.9,P2,1.072,P4,-92.82,P67,7.022,P2,251.3,P2,348.8,P25
9553,C94,,64.9%,Min,-119.8,P3,-7.986,P69,-48.23,P3,-0.4516,P5,-348.8,P25,-8.850,P3,4.995,P67,92.84,P67
9553,C94,,72.0%,Max,119.8,P2,13.10,P2,254.6,P2,1.072,P4,-92.40,P67,5.866,P2,254.9,P2,266.3,P24
9553,C94,,72.0%,Min,-119.8,P3,-7.986,P69,-44.61,P3,-0.4516,P5,-266.2,P24,-9.697,P3,5.726,P67,92.48,P67
9553,C94,,72.0%,Max,56.01,P2,16.24,P2,306.0,P13,10.51,P8,-89.19,P54,9.403,P2,306.3,P13,239.4,P28
9553,C94,,72.0%,Min,-65.10,P3,-10.09,P69,-8.347,P3,3.423,P55,-239.3,P28,-5.631,P69,12.85,P3,89.20,P54
9553,C94,,79.0%,Max,56.01,P2,16.24,P2,310.9,P13,10.51,P8,3.953,P2,9.496,P2,311.2,P13,149.8,P33
9553,C94,,79.0%,Min,-65.10,P3,-10.09,P69,-4.725,P3,3.423,P55,-149.8,P33,-7.879,P3,10.86,P3,10.29,P2
9553,C94,,86.0%,Max,56.01,P2,16.24,P2,315.8,P13,10.51,P8,117.7,P2,9.590,P2,316.1,P13,132.1,P3
9553,C94,,86.0%,Min,-65.10,P3,-10.09,P69,-1.103,P3,3.423,P55,-131.6,P3,-10.46,P3,9.837,P3,1.220,P84
9553,C94,,93.0%,Max,56.01,P2,16.24,P2,320.7,P13,10.51,P8,232.8,P2,9.684,P2,321.0,P13,233.0,P2
9553,C94,,93.0%,Min,-65.10,P3,-10.09,P69,2.519,P3,3.423,P55,-126.9,P3,-13.04,P3,10.09,P3,4.338,P19
9553,C94,5974,100.0%,Max,56.01,P2,16.24,P2,325.6,P13,10.51,P8,349.4,P2,9.891,P69,325.9,P13,349.5,P2
9553,C94,5974,100.0%,Min,-65.10,P3,-10.09,P69,6.141,P3,3.423,P55,-120.8,P3,-15.62,P3,11.54,P3,4.775,P43
9554,C94,4786,0.0%,Max,315.3,P2,183.8,P2,-99.16,P4,17.46,P33,733.4,P4,187.8,P2,432.0,P32,751.5,P4
9554,C94,4786,0.0%,Min,-491.5,P3,-216.1,P3,-424.0,P32,1.597,P48,-243.0,P5,-224.8,P3,135.9,P55,36.98,P43
9554,C94,,6.2%,Max,315.3,P2,183.8,P2,-95.77,P4,17.46,P33,621.5,P4,162.4,P2,427.5,P32,637.4,P4
9554,C94,,6.2%,Min,-491.5,P3,-216.1,P3,-419.4,P32,1.597,P48,-278.4,P5,-187.7,P3,132.8,P55,12.87,P43
9554,C94,,12.5%,Max,315.3,P2,183.8,P2,-92.39,P4,17.46,P33,510.9,P4,136.9,P2,423.0,P32,524.5,P4
9554,C94,,12.5%,Min,-491.5,P3,-216.1,P3,-414.8,P32,1.597,P48,-312.6,P5,-150.7,P3,129.6,P55,25.03,P65
9554,C94,,18.7%,Max,315.3,P2,183.8,P2,-89.01,P4,17.46,P33,401.4,P4,111.4,P2,418.5,P32,412.7,P4
9554,C94,,18.7%,Min,-491.5,P3,-216.1,P3,-410.3,P32,1.597,P48,-345.5,P5,-113.6,P3,126.5,P55,1.649,P89
9554,C94,,25.0%,Max,315.3,P2,183.8,P2,-85.62,P4,17.46,P33,293.2,P4,85.97,P2,414.0,P32,382.6,P5
9554,C94,,25.0%,Min,-491.5,P3,-216.1,P3,-405.7,P32,1.597,P48,-377.2,P5,-76.49,P3,123.3,P55,5.946,P27
9554,C94,,25.0%,Max,214.0,P2,11.71,P2,-60.78,P4,6.342,P21,263.7,P4,7.005,P2,357.4,P32,384.9,P5
9554,C94,,25.0%,Min,-335.4,P3,-20.62,P3,-357.3,P32,-2.430,P48,-384.7,P5,-13.91,P3,61.46,P4,1.649,P50
9554,C94,,31.2%,Max,214.0,P2,11.71,P2,-57.40,P4,6.342,P21,164.5,P4,9.266,P2,352.8,P32,406.7,P5
9554,C94,,31.2%,Min,-335.4,P3,-20.62,P3,-352.7,P32,-2.430,P48,-406.6,P5,-12.97,P3,58.11,P4,1.302,P62
9554,C94,,37.5%,Max,214.0,P2,11.71,P2,-54.02,P4,6.342,P21,66.38,P4,11.53,P2,348.2,P32,427.4,P5
9554,C94,,37.5%,Min,-335.4,P3,-20.62,P3,-348.1,P32,-2.430,P48,-427.2,P5,-12.04,P3,54.77,P4,9.430,P68
9554,C94,,43.7%,Max,214.0,P2,11.71,P2,-50.63,P4,6.342,P21,-30.48,P4,13.79,P2,343.7,P32,500.9,P24
9554,C94,,43.7%,Min,-335.4,P3,-20.62,P3,-343.6,P32,-2.430,P48,-500.9,P24,-11.10,P3,51.44,P4,32.59,P4
9554,C94,,50.0%,Max,214.0,P2,11.71,P2,-47.25,P4,6.342,P21,-126.1,P4,16.05,P2,339.1,P32,606.1,P24
9554,C94,,50.0%,Min,-335.4,P3,-20.62,P3,-339.0,P32,-2.430,P48,-606.1,P24,-10.16,P3,48.11,P4,126.8,P4
9554,C94,,50.0%,Max,116.2,P2,3.639,P4,305.7,P24,-2.457,P69,-247.6,P68,2.342,P4,305.7,P24,833.2,P24
9554,C94,,50.0%,Min,-198.4,P3,-7.343,P5,35.88,P5,-7.527,P24,-833.2,P24,-5.356,P5,36.62,P5,247.6,P68
9554,C94,,56.2%,Max,116.2,P2,3.639,P4,310.3,P24,-2.457,P69,-222.4,P68,3.107,P4,310.3,P24,722.5,P24
9554,C94,,56.2%,Min,-198.4,P3,-7.343,P5,39.26,P5,-7.527,P24,-722.5,P24,-4.789,P5,39.94,P5,222.4,P68
9554,C94,,62.5%,Max,116.2,P2,3.639,P4,314.8,P24,-2.457,P69,-196.0,P68,3.909,P2,314.9,P24,610.2,P24
9554,C94,,62.5%,Min,-198.4,P3,-7.343,P5,42.64,P5,-7.527,P24,-610.2,P24,-4.260,P3,43.27,P5,196.0,P68
9554,C94,,68.7%,Max,116.2,P2,3.639,P4,319.4,P24,-2.457,P69,-168.3,P68,4.778,P2,319.4,P24,496.2,P24
9554,C94,,68.7%,Min,-198.4,P3,-7.343,P5,46.03,P5,-7.527,P24,-496.2,P24,-3.799,P3,46.61,P5,168.3,P68
9554,C94,,75.0%,Max,116.2,P2,3.639,P4,324.0,P24,-2.457,P69,-139.5,P68,5.648,P2,324.0,P24,380.8,P25
9554,C94,,75.0%,Min,-198.4,P3,-7.343,P5,49.41,P5,-7.527,P24,-380.8,P25,-3.337,P3,49.95,P5,139.5,P68
9554,C94,,75.0%,Max,42.69,P4,6.907,P2,387.3,P24,-4.021,P69,-129.9,P68,3.014,P4,387.4,P24,345.0,P25
9554,C94,,75.0%,Min,-109.4,P5,-14.15,P3,78.15,P5,-10.54,P30,-345.0,P25,-6.534,P5,79.36,P5,129.9,P68
9554,C94,,81.2%,Max,42.69,P4,6.907,P2,391.9,P24,-4.021,P69,-41.49,P4,5.723,P2,392.0,P24,207.9,P8
9554,C94,,81.2%,Min,-109.4,P5,-14.15,P3,81.53,P5,-10.54,P30,-207.9,P8,-6.640,P3,82.69,P5,41.87,P4
9554,C94,,87.5%,Max,42.69,P4,6.907,P2,396.5,P24,-4.021,P69,65.34,P4,8.440,P2,396.6,P24,141.7,P5
9554,C94,,87.5%,Min,-109.4,P5,-14.15,P3,84.91,P5,-10.54,P30,-141.5,P5,-6.753,P3,86.03,P5,0.8145,P55
9554,C94,,93.7%,Max,42.69,P4,6.907,P2,401.0,P24,-4.021,P69,173.4,P4,11.16,P2,401.1,P24,173.7,P4
9554,C94,,93.7%,Min,-109.4,P5,-14.15,P3,88.30,P5,-10.54,P30,-107.9,P5,-6.866,P3,89.37,P5,1.569,P93
9554,C94,5965,100.0%,Max,42.69,P4,6.907,P2,405.6,P24,-4.021,P69,282.7,P4,13.87,P2,405.7,P24,283.0,P4
9554,C94,5965,100.0%,Min,-109.4,P5,-14.15,P3,91.68,P5,-10.54,P30,-72.99,P5,-6.979,P3,92.72,P5,32.21,P68
9555,C94,7390,0.0%,Max,56.97,P2,-2.099,P68,-142.3,P48,1.430,P64,502.3,P20,4.364,P2,405.8,P32,502.4,P20
9555,C94,7390,0.0%,Min,-230.3,P3,-63.28,P13,-404.3,P32,-6.524,P11,-42.81,P5,-34.41,P3,148.1,P4,36.27,P3
9555,C94,,5.7%,Max,56.97,P2,-2.099,P68,-139.3,P48,1.430,P64,381.9,P20,10.83,P2,401.8,P32,381.9,P20
9555,C94,,5.7%,Min,-230.3,P3,-63.28,P13,-400.3,P32,-6.524,P11,-89.44,P5,-22.33,P3,145.2,P4,9.214,P64
9555,C94,,11.4%,Max,56.97,P2,-2.099,P68,-136.3,P48,1.430,P64,266.9,P4,17.30,P2,397.7,P32,267.2,P4
9555,C94,,11.4%,Min,-230.3,P3,-63.28,P13,-396.2,P32,-6.524,P11,-135.1,P5,-10.25,P3,142.2,P4,4.370,P85
9555,C94,,17.1%,Max,56.97,P2,-2.099,P68,-133.3,P48,1.430,P64,188.2,P4,26.11,P13,393.7,P32,189.4,P4
9555,C94,,17.1%,Min,-230.3,P3,-63.28,P13,-392.2,P32,-6.524,P11,-179.8,P5,1.825,P3,139.2,P4,23.19,P31
9555,C94,,22.7%,Max,56.97,P2,-2.099,P68,-130.3,P48,1.430,P64,110.6,P4,46.26,P13,389.7,P32,224.2,P5
9555,C94,,22.7%,Min,-230.3,P3,-63.28,P13,-388.1,P32,-6.524,P11,-223.6,P5,3.935,P68,136.2,P4,7.850,P66
9555,C94,,22.7%,Max,26.00,P2,27.16,P2,-113.5,P48,2.543,P2,92.89,P4,16.60,P2,344.3,P32,233.5,P5
9555,C94,,22.7%,Min,-143.9,P3,-40.03,P3,-344.3,P32,-3.214,P47,-233.1,P5,-18.43,P3,115.5,P4,3.041,P82
9555,C94,,28.4%,Max,26.00,P2,27.16,P2,-110.5,P48,2.543,P2,23.17,P4,20.60,P2,340.3,P32,269.7,P5
9555,C94,,28.4%,Min,-143.9,P3,-40.03,P3,-340.3,P32,-3.214,P47,-269.3,P5,-18.33,P3,112.5,P4,11.62,P59
9555,C94,,34.1%,Max,26.00,P2,27.16,P2,-107.5,P48,2.543,P2,-45.60,P4,24.60,P2,336.2,P32,351.0,P16
9555,C94,,34.1%,Min,-143.9,P3,-40.03,P3,-336.2,P32,-3.214,P47,-351.0,P16,-18.23,P3,109.6,P4,49.81,P4
9555,C94,,39.8%,Max,26.00,P2,27.16,P2,-104.5,P48,2.543,P2,-113.4,P4,28.59,P2,332.2,P32,446.7,P28
9555,C94,,39.8%,Min,-143.9,P3,-40.03,P3,-332.2,P32,-3.214,P47,-446.5,P28,-18.13,P3,106.6,P4,115.8,P4
9555,C94,,45.5%,Max,26.00,P2,27.16,P2,-101.5,P48,2.543,P2,-169.4,P59,32.59,P2,328.1,P32,541.2,P28
9555,C94,,45.5%,Min,-143.9,P3,-40.03,P3,-328.1,P32,-3.214,P47,-540.9,P28,-18.03,P3,103.7,P4,169.4,P59
9555,C94,,45.5%,Max,62.73,P2,5.866,P2,250.6,P31,5.162,P8,-253.1,P68,7.210,P2,250.6,P31,729.5,P28
9555,C94,,45.5%,Min,-129.5,P3,-3.120,P3,59.98,P5,1.712,P5,-729.4,P28,-2.930,P3,60.06,P5,253.1,P68
9555,C94,,52.3%,Max,62.73,P2,5.866,P2,255.5,P31,5.162,P8,-224.0,P68,6.008,P2,255.5,P31,633.3,P28
9555,C94,,52.3%,Min,-129.5,P3,-3.120,P3,63.58,P5,1.712,P5,-633.3,P28,-2.776,P3,63.65,P5,224.0,P68
9555,C94,,59.1%,Max,62.73,P2,5.866,P2,260.3,P31,5.162,P8,-193.6,P59,4.806,P2,260.4,P31,535.3,P28
9555,C94,,59.1%,Min,-129.5,P3,-3.120,P3,67.17,P5,1.712,P5,-535.3,P28,-2.623,P3,67.25,P5,193.6,P59
9555,C94,,65.9%,Max,62.73,P2,5.866,P2,265.2,P31,5.162,P8,-160.3,P46,3.604,P2,265.2,P31,435.5,P29
9555,C94,,65.9%,Min,-129.5,P3,-3.120,P3,70.77,P5,1.712,P5,-435.5,P29,-2.469,P3,70.84,P5,160.3,P46
9555,C94,,72.7%,Max,62.73,P2,5.866,P2,270.1,P31,5.162,P8,-124.7,P50,2.483,P4,270.1,P31,333.9,P25
9555,C94,,72.7%,Min,-129.5,P3,-3.120,P3,74.37,P5,1.712,P5,-333.9,P25,-2.398,P5,74.43,P5,124.7,P50
9555,C94,,72.7%,Max,62.29,P4,11.12,P2,326.9,P31,2.777,P27,-112.4,P50,8.764,P2,326.9,P31,299.9,P25
9555,C94,,72.7%,Min,-146.7,P5,-9.320,P3,100.0,P5,0.4212,P5,-299.9,P25,-8.444,P3,100.4,P5,112.4,P50
9555,C94,,79.6%,Max,62.29,P4,11.12,P2,331.8,P31,2.777,P27,-54.20,P4,8.092,P2,331.8,P31,175.9,P8
9555,C94,,79.6%,Min,-146.7,P5,-9.320,P3,103.6,P5,0.4212,P5,-175.9,P8,-8.460,P3,104.0,P5,54.76,P4
9555,C94,,86.4%,Max,62.29,P4,11.12,P2,336.6,P31,2.777,P27,33.98,P4,7.421,P2,336.6,P31,86.72,P5
9555,C94,,86.4%,Min,-146.7,P5,-9.320,P3,107.2,P5,0.4212,P5,-86.35,P5,-8.476,P3,107.5,P5,2.581,P55
9555,C94,,93.2%,Max,62.29,P4,11.12,P2,341.5,P31,2.777,P27,123.5,P4,6.749,P2,341.5,P31,123.7,P4
9555,C94,,93.2%,Min,-146.7,P5,-9.320,P3,110.8,P5,0.4212,P5,-42.66,P5,-8.492,P3,111.1,P5,15.00,P68
9555,C94,6420,100.0%,Max,62.29,P4,11.12,P2,346.3,P31,2.777,P27,218.9,P31,6.078,P2,346.3,P31,218.9,P31
9555,C94,6420,100.0%,Min,-146.7,P5,-9.320,P3,114.4,P5,0.4212,P5,2.393,P5,-8.508,P3,114.7,P5,8.059,P5
9556,C94,4849,0.0%,Max,216.4,P2,256.8,P4,151.0,P48,13.53,P4,449.3,P4,229.4,P4,282.6,P4,823.8,P48
9556,C94,4849,0.0%,Min,-538.7,P48,-160.6,P5,-166.2,P5,-17.11,P5,-807.0,P48,-149.3,P5,37.19,P79,34.34,P39
9556,C94,,6.2%,Max,216.4,P2,256.8,P4,154.4,P48,13.53,P4,390.9,P4,192.2,P4,284.1,P4,759.4,P48
9556,C94,,6.2%,Min,-538.7,P48,-160.6,P5,-162.8,P5,-17.11,P5,-752.5,P48,-146.4,P5,36.70,P79,18.79,P59
9556,C94,,12.3%,Max,216.4,P2,256.8,P4,157.7,P48,13.53,P4,333.8,P4,154.9,P4,285.5,P4,697.9,P48
9556,C94,,12.3%,Min,-538.7,P48,-160.6,P5,-159.4,P5,-17.11,P5,-696.9,P48,-143.4,P5,36.50,P79,4.880,P30
9556,C94,,18.5%,Max,216.4,P2,256.8,P4,161.1,P48,13.53,P4,277.8,P4,117.7,P4,287.0,P4,640.5,P48
9556,C94,,18.5%,Min,-538.7,P48,-160.6,P5,-156.1,P5,-17.11,P5,-640.0,P48,-140.5,P5,36.50,P39,3.768,P55
9556,C94,,24.6%,Max,216.4,P2,256.8,P4,164.5,P48,13.53,P4,223.0,P4,80.43,P4,288.5,P4,588.5,P48
9556,C94,,24.6%,Min,-538.7,P48,-160.6,P5,-152.7,P5,-17.11,P5,-581.9,P48,-137.6,P5,33.84,P39,10.10,P19
9556,C94,,24.6%,Max,170.2,P2,36.83,P2,210.7,P48,7.383,P4,210.3,P4,21.95,P2,213.0,P48,573.6,P48
9556,C94,,24.6%,Min,-376.4,P48,-21.25,P3,-132.9,P5,-23.50,P5,-573.4,P48,-14.48,P3,5.495,P8,3.102,P56
9556,C94,,30.8%,Max,170.2,P2,36.83,P2,214.1,P48,7.383,P4,167.1,P66,20.49,P2,216.3,P48,497.6,P48
9556,C94,,30.8%,Min,-376.4,P48,-21.25,P3,-129.5,P5,-23.50,P5,-497.6,P48,-18.58,P3,3.011,P58,1.510,P20
9556,C94,,36.9%,Max,170.2,P2,36.83,P2,217.5,P48,7.383,P4,127.4,P2,19.04,P2,219.7,P48,420.6,P48
9556,C94,,36.9%,Min,-376.4,P48,-21.25,P3,-126.2,P5,-23.50,P5,-420.6,P48,-22.67,P3,2.620,P59,2.149,P63
9556,C94,,43.1%,Max,170.2,P2,36.83,P2,220.8,P48,7.383,P4,92.94,P68,17.61,P4,223.0,P48,351.7,P12
9556,C94,,43.1%,Min,-376.4,P48,-21.25,P3,-122.8,P5,-23.50,P5,-351.4,P12,-26.81,P5,3.429,P59,5.729,P83
9556,C94,,49.3%,Max,170.2,P2,36.83,P2,224.2,P48,7.383,P4,60.05,P68,16.25,P4,226.3,P48,282.0,P12
9556,C94,,49.3%,Min,-376.4,P48,-21.25,P3,-119.5,P5,-23.50,P5,-280.9,P12,-31.00,P5,6.262,P59,3.441,P87
9556,C94,,49.3%,Max,91.85,P2,5.588,P4,104.3,P12,3.719,P12,1.034,P68,4.453,P4,104.3,P12,297.8,P12
9556,C94,,49.3%,Min,-186.8,P3,-6.923,P5,-31.59,P68,-0.04703,P5,-297.8,P12,-6.377,P5,1.152,P83,1.173,P68
9556,C94,,55.6%,Max,91.85,P2,5.588,P4,108.9,P12,3.719,P12,-9.935,P68,4.495,P4,109.0,P12,258.6,P12
9556,C94,,55.6%,Min,-186.8,P3,-6.923,P5,-28.13,P68,-0.04703,P5,-258.6,P12,-5.929,P5,2.368,P86,9.946,P68
9556,C94,,61.9%,Max,91.85,P2,5.588,P4,113.6,P12,3.719,P12,-19.63,P68,4.537,P4,113.6,P12,217.7,P12
9556,C94,,61.9%,Min,-186.8,P3,-6.923,P5,-24.67,P68,-0.04703,P5,-217.7,P12,-5.480,P5,1.326,P87,19.64,P68
9556,C94,,68.3%,Max,91.85,P2,5.588,P4,118.3,P12,3.719,P12,-28.06,P68,4.579,P4,118.3,P12,175.1,P12
9556,C94,,68.3%,Min,-186.8,P3,-6.923,P5,-21.21,P68,-0.04703,P5,-175.1,P12,-5.032,P5,1.414,P45,28.06,P68
9556,C94,,74.6%,Max,91.85,P2,5.588,P4,123.0,P12,3.719,P12,-29.65,P4,4.622,P4,123.0,P12,136.1,P24
9556,C94,,74.6%,Min,-186.8,P3,-6.923,P5,-17.76,P68,-0.04703,P5,-136.1,P24,-4.584,P5,0.5338,P44,30.01,P4
9556,C94,,74.6%,Max,104.8,P2,14.22,P4,174.9,P12,13.30,P24,-25.78,P4,12.29,P4,174.9,P12,121.5,P28
9556,C94,,74.6%,Min,-195.6,P3,-12.34,P5,-0.01308,P68,3.267,P5,-121.4,P28,-9.089,P5,4.118,P68,28.56,P4
9556,C94,,81.0%,Max,104.8,P2,14.22,P4,179.5,P12,13.30,P24,13.75,P4,11.66,P4,179.6,P12,79.87,P5
9556,C94,,81.0%,Min,-195.6,P3,-12.34,P5,3.445,P68,3.267,P5,-79.34,P5,-9.144,P5,5.370,P68,11.14,P49
9556,C94,,87.3%,Max,104.8,P2,14.22,P4,184.2,P12,13.30,P24,54.55,P4,11.02,P4,184.3,P12,64.24,P5
9556,C94,,87.3%,Min,-195.6,P3,-12.34,P5,6.904,P68,3.267,P5,-63.57,P5,-9.199,P5,8.039,P68,2.346,P38
9556,C94,,93.7%,Max,104.8,P2,14.22,P4,188.9,P12,13.30,P24,96.63,P4,10.39,P4,188.9,P12,97.18,P4
9556,C94,,93.7%,Min,-195.6,P3,-12.34,P5,10.36,P68,3.267,P5,-46.53,P5,-9.254,P5,11.15,P68,1.765,P21
9556,C94,4787,100.0%,Max,104.8,P2,14.22,P4,193.5,P12,13.30,P24,156.5,P12,9.755,P4,193.6,P12,156.5,P12
9556,C94,4787,100.0%,Min,-195.6,P3,-12.34,P5,13.82,P68,3.267,P5,-29.54,P3,-9.310,P5,14.42,P68,1.554,P44
9557,C94,7361,0.0%,Max,180.7,P2,15.92,P4,-10.78,P2,9.306,P25,530.9,P2,15.57,P2,309.5,P31,531.1,P2
9557,C94,7361,0.0%,Min,-209.8,P3,-12.25,P5,-309.5,P31,0.1325,P3,-452.6,P3,-15.49,P3,18.50,P2,11.63,P7
9557,C94,,5.9%,Max,180.7,P2,15.92,P4,-7.993,P2,9.306,P25,454.9,P2,11.96,P2,305.8,P31,455.7,P3
9557,C94,,5.9%,Min,-209.8,P3,-12.25,P5,-305.7,P31,0.1325,P3,-455.5,P3,-12.97,P3,17.02,P2,2.243,P89
9557,C94,,11.8%,Max,180.7,P2,15.92,P4,-5.202,P2,9.306,P25,379.7,P2,8.353,P2,302.0,P31,457.7,P3
9557,C94,,11.8%,Min,-209.8,P3,-12.25,P5,-302.0,P31,0.1325,P3,-457.6,P3,-10.44,P3,15.90,P2,6.008,P14
9557,C94,,17.8%,Max,180.7,P2,15.92,P4,-2.411,P2,9.306,P25,305.4,P2,4.744,P2,298.2,P31,459.0,P3
9557,C94,,17.8%,Min,-209.8,P3,-12.25,P5,-298.2,P31,0.1325,P3,-458.9,P3,-7.919,P3,15.22,P2,2.145,P30
9557,C94,,23.7%,Max,180.7,P2,15.92,P4,0.3797,P2,9.306,P25,231.9,P2,1.135,P2,294.5,P31,459.4,P3
9557,C94,,23.7%,Min,-209.8,P3,-12.25,P5,-294.4,P31,0.1325,P3,-459.4,P3,-5.396,P3,15.03,P2,3.670,P21
9557,C94,,23.7%,Max,105.6,P2,17.59,P2,24.85,P2,9.929,P25,216.6,P2,8.304,P2,253.1,P19,458.6,P3
9557,C94,,23.7%,Min,-140.3,P3,-8.683,P3,-253.1,P19,0.9582,P3,-458.6,P3,-4.460,P3,16.64,P49,4.422,P56
9557,C94,,29.6%,Max,105.6,P2,17.59,P2,27.64,P2,9.929,P25,149.7,P2,7.760,P2,249.3,P19,451.1,P3
9557,C94,,29.6%,Min,-140.3,P3,-8.683,P3,-249.3,P19,0.9582,P3,-451.1,P3,-6.557,P3,14.97,P49,0.7144,P42
9557,C94,,35.5%,Max,105.6,P2,17.59,P2,30.43,P2,9.929,P25,83.53,P2,7.217,P2,245.6,P19,442.9,P3
9557,C94,,35.5%,Min,-140.3,P3,-8.683,P3,-245.5,P19,0.9582,P3,-442.8,P3,-8.653,P3,13.67,P49,0.3721,P69
9557,C94,,41.4%,Max,105.6,P2,17.59,P2,33.22,P2,9.929,P25,18.22,P2,6.673,P2,241.8,P19,433.8,P3
9557,C94,,41.4%,Min,-140.3,P3,-8.683,P3,-241.8,P19,0.9582,P3,-433.7,P3,-10.75,P3,12.86,P49,19.41,P2
9557,C94,,47.3%,Max,105.6,P2,17.59,P2,36.01,P2,9.929,P25,-46.25,P2,6.130,P2,238.0,P19,472.5,P25
9557,C94,,47.3%,Min,-140.3,P3,-8.683,P3,-238.0,P19,0.9582,P3,-472.4,P25,-12.85,P3,12.18,P48,46.66,P2
9557,C94,,47.3%,Max,64.18,P2,15.18,P2,255.5,P2,-3.054,P60,-102.5,P2,10.13,P2,256.0,P2,564.3,P25
9557,C94,,47.3%,Min,-92.60,P3,-7.907,P3,-15.11,P3,-8.689,P31,-564.2,P25,-5.478,P3,17.05,P3,103.0,P2
9557,C94,,53.9%,Max,64.18,P2,15.18,P2,258.6,P2,-3.054,P60,-103.8,P2,8.859,P2,259.1,P2,481.0,P25
9557,C94,,53.9%,Min,-92.60,P3,-7.907,P3,-12.01,P3,-8.689,P31,-481.0,P25,-6.603,P3,14.38,P3,104.2,P2
9557,C94,,60.5%,Max,64.18,P2,15.18,P2,261.7,P2,-3.054,P60,-104.1,P2,7.588,P2,262.2,P2,396.4,P25
9557,C94,,60.5%,Min,-92.60,P3,-7.907,P3,-8.902,P3,-8.689,P31,-396.4,P25,-7.729,P3,11.91,P3,104.4,P2
9557,C94,,67.1%,Max,64.18,P2,15.18,P2,264.8,P2,-3.054,P60,-103.3,P2,6.316,P2,265.3,P2,310.4,P25
9557,C94,,67.1%,Min,-92.60,P3,-7.907,P3,-5.798,P3,-8.689,P31,-310.4,P25,-8.855,P3,9.805,P3,103.5,P2
9557,C94,,73.7%,Max,64.18,P2,15.18,P2,267.9,P2,-3.054,P60,-89.12,P47,5.045,P2,268.4,P2,225.1,P8
9557,C94,,73.7%,Min,-92.60,P3,-7.907,P3,-2.694,P3,-8.689,P31,-225.1,P8,-9.980,P3,8.353,P3,89.18,P47
9557,C94,,73.7%,Max,35.77,P2,16.33,P4,312.5,P25,-0.6226,P4,-79.45,P47,5.805,P2,312.7,P25,210.1,P33
9557,C94,,73.7%,Min,-86.32,P12,-9.795,P5,15.48,P3,-3.187,P31,-210.1,P33,-4.226,P3,18.30,P3,79.46,P47
9557,C94,,80.3%,Max,35.77,P2,16.33,P4,316.7,P25,-0.6226,P4,5.874,P2,6.708,P2,316.9,P25,127.9,P33
9557,C94,,80.3%,Min,-86.32,P12,-9.795,P5,18.59,P3,-3.187,P31,-127.9,P33,-7.282,P3,20.99,P3,8.916,P2
9557,C94,,86.8%,Max,35.77,P2,16.33,P4,320.9,P25,-0.6226,P4,102.3,P2,7.611,P2,321.0,P25,107.3,P3
9557,C94,,86.8%,Min,-86.32,P12,-9.795,P5,21.69,P3,-3.187,P31,-106.8,P3,-10.34,P3,23.78,P3,1.737,P79
9557,C94,,93.4%,Max,35.77,P2,16.33,P4,325.1,P25,-0.6226,P4,199.8,P2,8.514,P2,325.2,P25,200.0,P2
9557,C94,,93.4%,Min,-86.32,P12,-9.795,P5,24.80,P3,-3.187,P31,-97.32,P3,-13.40,P3,26.65,P3,2.464,P57
9557,C94,5977,100.0%,Max,35.77,P2,16.33,P4,329.3,P25,-0.6226,P4,298.3,P2,9.417,P2,329.4,P25,298.5,P2
9557,C94,5977,100.0%,Min,-86.32,P12,-9.795,P5,27.90,P3,-3.187,P31,-86.82,P3,-16.45,P3,29.56,P3,3.062,P66
9572,C94,6957,0.0%,Max,90.42,P2,24.14,P2,-72.92,P4,0.1846,P2,380.3,P33,23.81,P2,160.3,P33,380.3,P33
9572,C94,6957,0.0%,Min,-62.78,P3,-25.14,P3,-160.3,P33,-4.105,P22,150.0,P5,-24.88,P3,75.60,P4,151.2,P5
9572,C94,,12.5%,Max,90.42,P2,24.14,P2,-69.07,P4,0.1846,P2,315.8,P33,21.92,P2,155.1,P33,315.8,P33
9572,C94,,12.5%,Min,-62.78,P3,-25.14,P3,-155.1,P33,-4.105,P22,120.8,P5,-22.59,P3,71.89,P4,122.2,P5
9572,C94,,25.0%,Max,90.42,P2,24.14,P2,-65.22,P4,0.1846,P2,253.4,P33,20.04,P2,150.0,P33,253.4,P33
9572,C94,,25.0%,Min,-62.78,P3,-25.14,P3,-150.0,P33,-4.105,P22,93.27,P5,-20.29,P3,68.20,P4,94.79,P5
9572,C94,,37.5%,Max,90.42,P2,24.14,P2,-61.37,P4,0.1846,P2,193.2,P33,18.15,P2,144.8,P33,193.2,P33
9572,C94,,37.5%,Min,-62.78,P3,-25.14,P3,-144.8,P33,-4.105,P22,67.29,P5,-17.99,P3,64.53,P4,69.09,P5
9572,C94,,50.0%,Max,90.42,P2,24.14,P2,-57.52,P4,0.1846,P2,135.1,P33,16.26,P2,139.6,P33,135.1,P33
9572,C94,,50.0%,Min,-62.78,P3,-25.14,P3,-139.6,P33,-4.105,P22,42.88,P5,-15.70,P3,60.88,P4,45.25,P5
9572,C94,,50.0%,Max,69.61,P2,11.73,P4,-26.96,P4,6.218,P8,116.2,P33,8.106,P4,75.31,P33,116.2,P33
9572,C94,,50.0%,Min,-45.98,P3,-12.30,P5,-75.31,P33,2.485,P79,34.23,P5,-8.742,P5,29.40,P4,35.32,P5
9572,C94,,62.5%,Max,69.61,P2,11.73,P4,-23.11,P4,6.218,P8,86.46,P33,8.926,P4,70.11,P33,86.46,P33
9572,C94,,62.5%,Min,-45.98,P3,-12.30,P5,-70.11,P33,2.485,P79,23.95,P5,-9.326,P5,25.92,P4,25.70,P5
9572,C94,,75.0%,Max,69.61,P2,11.73,P4,-19.26,P4,6.218,P8,58.85,P33,9.746,P4,64.91,P33,58.85,P33
9572,C94,,75.0%,Min,-45.98,P3,-12.30,P5,-64.91,P33,2.485,P79,15.24,P5,-9.911,P5,22.55,P4,18.18,P5
9572,C94,,87.5%,Max,69.61,P2,11.73,P4,-15.41,P4,6.218,P8,33.37,P33,10.57,P4,59.71,P33,33.45,P4
9572,C94,,87.5%,Min,-45.98,P3,-12.30,P5,-59.71,P33,2.485,P79,8.108,P5,-10.50,P5,19.37,P4,13.26,P5
9572,C94,5221,100.0%,Max,69.61,P2,11.73,P4,-11.56,P4,6.218,P8,10.01,P33,11.39,P4,55.18,P5,14.51,P4
9572,C94,5221,100.0%,Min,-45.98,P3,-12.30,P5,-54.51,P33,2.485,P79,2.551,P5,-11.08,P5,16.47,P4,4.881,P72
9573,C94,5217,0.0%,Max,54.40,P4,1.708,P4,98.81,P24,4.772,P24,-7.913,P4,2.360,P4,98.81,P24,19.89,P24
9573,C94,5217,0.0%,Min,-43.23,P5,-1.983,P5,39.28,P5,1.640,P5,-19.89,P24,-2.438,P5,39.33,P5,8.003,P51
9573,C94,,8.3%,Max,54.40,P4,1.708,P4,102.8,P24,4.772,P24,12.69,P4,1.925,P4,102.8,P24,12.84,P4
9573,C94,,8.3%,Min,-43.23,P5,-1.983,P5,42.27,P5,1.640,P5,2.056,P5,-1.916,P5,42.32,P5,2.811,P5
9573,C94,,16.7%,Max,54.40,P4,1.708,P4,106.9,P24,4.772,P24,45.33,P24,1.490,P4,106.9,P24,45.33,P24
9573,C94,,16.7%,Min,-43.23,P5,-1.983,P5,45.25,P5,1.640,P5,16.86,P5,-1.394,P5,45.30,P5,16.92,P5
9573,C94,,25.0%,Max,54.40,P4,1.708,P4,110.9,P24,4.772,P24,79.85,P24,1.216,P2,110.9,P24,79.85,P24
9573,C94,,25.0%,Min,-43.23,P5,-1.983,P5,48.24,P5,1.640,P5,32.61,P5,-1.033,P3,48.28,P5,32.62,P5
9573,C94,,33.3%,Max,54.40,P4,1.708,P4,114.9,P24,4.772,P24,115.7,P24,1.168,P2,114.9,P24,115.7,P24
9573,C94,,33.3%,Min,-43.23,P5,-1.983,P5,51.23,P5,1.640,P5,49.30,P5,-0.8975,P3,51.26,P5,49.30,P5
9573,C94,,33.3%,Max,67.10,P4,6.947,P4,209.4,P24,17.07,P24,106.4,P24,4.887,P4,209.4,P24,106.4,P24
9573,C94,,33.3%,Min,-57.36,P5,-6.687,P5,89.59,P5,7.157,P56,45.42,P5,-4.625,P5,89.84,P5,45.65,P5
9573,C94,,41.7%,Max,67.10,P4,6.947,P4,213.5,P24,17.07,P24,173.5,P24,4.632,P4,213.5,P24,173.5,P24
9573,C94,,41.7%,Min,-57.36,P5,-6.687,P5,92.58,P5,7.157,P56,74.32,P5,-4.452,P5,92.82,P5,74.45,P5
9573,C94,,50.0%,Max,67.10,P4,6.947,P4,217.5,P24,17.07,P24,241.8,P24,4.376,P4,217.5,P24,241.8,P24
9573,C94,,50.0%,Min,-57.36,P5,-6.687,P5,95.56,P5,7.157,P56,104.2,P5,-4.279,P5,95.80,P5,104.3,P5
9573,C94,,58.3%,Max,67.10,P4,6.947,P4,221.5,P24,17.07,P24,311.4,P24,4.120,P4,221.5,P24,311.4,P24
9573,C94,,58.3%,Min,-57.36,P5,-6.687,P5,98.55,P5,7.157,P56,135.0,P5,-4.105,P5,98.77,P5,135.0,P5
9573,C94,,66.7%,Max,67.10,P4,6.947,P4,225.5,P24,17.07,P24,382.3,P24,3.864,P4,225.5,P24,382.3,P24
9573,C94,,66.7%,Min,-57.36,P5,-6.687,P5,101.5,P5,7.157,P56,166.7,P5,-3.932,P5,101.8,P5,166.8,P5
9573,C94,,66.7%,Max,85.57,P4,29.52,P4,206.5,P24,-1.555,P4,391.5,P24,11.23,P4,206.5,P24,391.5,P24
9573,C94,,66.7%,Min,-82.66,P5,-29.66,P5,93.15,P5,-5.785,P33,171.0,P5,-11.08,P5,97.75,P5,171.4,P5
9573,C94,,75.0%,Max,85.57,P4,29.52,P4,210.5,P24,-1.555,P4,457.6,P24,15.06,P4,210.5,P24,457.6,P24
9573,C94,,75.0%,Min,-82.66,P5,-29.66,P5,96.13,P5,-5.785,P33,201.1,P5,-14.87,P5,100.6,P5,201.6,P5
9573,C94,,83.3%,Max,85.57,P4,29.52,P4,214.5,P24,-1.555,P4,525.0,P24,18.89,P4,214.5,P24,525.0,P24
9573,C94,,83.3%,Min,-82.66,P5,-29.66,P5,99.12,P5,-5.785,P33,232.1,P5,-18.66,P5,103.5,P5,232.8,P5
9573,C94,,91.7%,Max,85.57,P4,29.52,P4,218.6,P24,-1.555,P4,593.7,P24,22.72,P4,218.6,P24,593.7,P24
9573,C94,,91.7%,Min,-82.66,P5,-29.66,P5,102.1,P5,-5.785,P33,264.0,P5,-22.44,P5,106.3,P5,265.0,P5
9573,C94,6957,100.0%,Max,85.57,P4,29.52,P4,222.6,P24,-1.555,P4,663.6,P24,26.55,P4,222.6,P24,663.6,P24
9573,C94,6957,100.0%,Min,-82.66,P5,-29.66,P5,105.1,P5,-5.785,P33,296.9,P5,-26.23,P5,109.2,P5,298.1,P5
9574,C94,6954,0.0%,Max,119.6,P4,28.18,P2,-60.85,P4,-2.339,P2,321.9,P33,27.72,P2,148.4,P33,321.9,P33
9574,C94,6954,0.0%,Min,-110.6,P5,-24.72,P3,-148.4,P33,-5.785,P6,103.6,P5,-24.30,P3,63.61,P4,104.6,P5
9574,C94,,12.5%,Max,119.6,P4,28.18,P2,-57.04,P4,-2.339,P2,262.9,P33,24.72,P2,143.2,P33,262.9,P33
9574,C94,,12.5%,Min,-110.6,P5,-24.72,P3,-143.2,P33,-5.785,P6,79.72,P5,-22.70,P3,59.98,P4,80.89,P5
9574,C94,,25.0%,Max,119.6,P4,28.18,P2,-53.23,P4,-2.339,P2,206.0,P33,21.72,P2,138.1,P33,206.0,P33
9574,C94,,25.0%,Min,-110.6,P5,-24.72,P3,-138.1,P33,-5.785,P6,57.37,P5,-21.10,P3,56.37,P4,58.90,P5
9574,C94,,37.5%,Max,119.6,P4,28.18,P2,-49.42,P4,-2.339,P2,151.2,P33,18.72,P2,132.9,P33,151.2,P33
9574,C94,,37.5%,Min,-110.6,P5,-24.72,P3,-132.9,P33,-5.785,P6,36.56,P5,-19.50,P3,52.79,P4,38.78,P5
9574,C94,,50.0%,Max,119.6,P4,28.18,P2,-45.62,P4,-2.339,P2,103.0,P4,15.73,P2,127.8,P33,103.5,P4
9574,C94,,50.0%,Min,-110.6,P5,-24.72,P3,-127.8,P33,-5.785,P6,17.29,P5,-17.90,P3,49.24,P4,21.34,P5
9574,C94,,50.0%,Max,99.62,P4,12.24,P2,-14.95,P4,-2.999,P2,94.95,P4,7.846,P2,64.74,P5,95.16,P4
9574,C94,,50.0%,Min,-88.40,P5,-10.76,P3,-64.15,P5,-6.330,P6,12.12,P5,-6.896,P3,18.13,P4,13.26,P5
9574,C94,,62.5%,Max,99.62,P4,12.24,P2,-11.15,P4,-2.999,P2,69.96,P4,8.513,P2,60.97,P5,70.30,P4
9574,C94,,62.5%,Min,-88.40,P5,-10.76,P3,-60.34,P5,-6.330,P6,6.651,P5,-8.163,P3,15.14,P4,9.370,P5
9574,C94,,75.0%,Max,99.62,P4,12.24,P2,-7.337,P4,-2.999,P2,46.51,P4,9.180,P2,57.20,P5,47.12,P4
9574,C94,,75.0%,Min,-88.40,P5,-10.76,P3,-56.53,P5,-6.330,P6,2.722,P5,-9.431,P3,12.60,P4,8.280,P5
9574,C94,,87.5%,Max,99.62,P4,12.24,P2,-3.529,P4,-2.999,P2,24.60,P4,9.847,P2,53.44,P5,25.92,P4
9574,C94,,87.5%,Min,-88.40,P5,-10.76,P3,-52.72,P5,-6.330,P6,0.3347,P5,-10.70,P3,10.83,P4,9.046,P5
9574,C94,6092,100.0%,Max,99.62,P4,12.24,P2,0.2801,P4,-2.999,P2,4.456,P22,10.51,P2,49.69,P5,11.97,P3
9574,C94,6092,100.0%,Min,-88.40,P5,-10.76,P3,-48.91,P5,-6.330,P6,-0.5121,P5,-11.97,P3,10.25,P4,1.138,P80
9575,C94,5215,0.0%,Max,59.12,P4,1.299,P4,100.3,P24,-0.6624,P4,-8.488,P57,2.388,P4,100.3,P24,21.78,P24
9575,C94,5215,0.0%,Min,-45.27,P5,-1.187,P5,39.41,P5,-2.656,P8,-21.78,P24,-2.347,P5,39.43,P5,8.488,P57
9575,C94,,8.3%,Max,59.12,P4,1.299,P4,104.3,P24,-0.6624,P4,12.19,P4,2.096,P4,104.3,P24,12.36,P4
9575,C94,,8.3%,Min,-45.27,P5,-1.187,P5,42.41,P5,-2.656,P8,1.099,P5,-2.092,P5,42.43,P5,2.363,P5
9575,C94,,16.7%,Max,59.12,P4,1.299,P4,108.3,P24,-0.6624,P4,44.64,P24,1.805,P4,108.3,P24,44.64,P24
9575,C94,,16.7%,Min,-45.27,P5,-1.187,P5,45.41,P5,-2.656,P8,16.11,P5,-1.836,P5,45.42,P5,16.21,P5
9575,C94,,25.0%,Max,59.12,P4,1.299,P4,112.4,P24,-0.6624,P4,79.78,P24,1.513,P4,112.4,P24,79.78,P24
9575,C94,,25.0%,Min,-45.27,P5,-1.187,P5,48.40,P5,-2.656,P8,32.07,P5,-1.580,P5,48.42,P5,32.10,P5
9575,C94,,33.3%,Max,59.12,P4,1.299,P4,116.4,P24,-0.6624,P4,116.2,P24,1.424,P2,116.4,P24,116.2,P24
9575,C94,,33.3%,Min,-45.27,P5,-1.187,P5,51.40,P5,-2.656,P8,48.98,P5,-1.526,P3,51.42,P5,49.00,P5
9575,C94,,33.3%,Max,76.98,P4,6.302,P4,226.9,P24,-6.252,P4,95.63,P24,4.135,P4,226.9,P24,95.63,P24
9575,C94,,33.3%,Min,-62.26,P5,-6.292,P5,96.21,P5,-14.72,P28,40.18,P5,-4.239,P5,96.41,P5,40.40,P5
9575,C94,,41.7%,Max,76.98,P4,6.302,P4,230.9,P24,-6.252,P4,168.5,P24,4.045,P4,230.9,P24,168.5,P24
9575,C94,,41.7%,Min,-62.26,P5,-6.292,P5,99.21,P5,-14.72,P28,71.32,P5,-4.152,P5,99.40,P5,71.44,P5
9575,C94,,50.0%,Max,76.98,P4,6.302,P4,235.0,P24,-6.252,P4,242.7,P24,3.956,P4,235.0,P24,242.7,P24
9575,C94,,50.0%,Min,-62.26,P5,-6.292,P5,102.2,P5,-14.72,P28,103.4,P5,-4.066,P5,102.4,P5,103.5,P5
9575,C94,,58.3%,Max,76.98,P4,6.302,P4,239.0,P24,-6.252,P4,318.1,P24,3.867,P4,239.0,P24,318.1,P24
9575,C94,,58.3%,Min,-62.26,P5,-6.292,P5,105.2,P5,-14.72,P28,136.5,P5,-3.980,P5,105.4,P5,136.5,P5
9575,C94,,66.7%,Max,76.98,P4,6.302,P4,243.0,P24,-6.252,P4,394.9,P24,3.778,P4,243.0,P24,394.9,P24
9575,C94,,66.7%,Min,-62.26,P5,-6.292,P5,108.2,P5,-14.72,P28,170.5,P5,-3.894,P5,108.4,P5,170.5,P5
9575,C94,,66.7%,Max,100.5,P4,28.02,P4,194.3,P24,1.317,P4,398.9,P24,10.60,P4,194.3,P24,398.9,P24
9575,C94,,66.7%,Min,-87.81,P5,-28.34,P5,87.42,P5,-1.364,P5,172.4,P5,-10.93,P5,91.90,P5,172.8,P5
9575,C94,,75.0%,Max,100.5,P4,28.02,P4,198.3,P24,1.317,P4,461.4,P24,14.24,P4,198.3,P24,461.4,P24
9575,C94,,75.0%,Min,-87.81,P5,-28.34,P5,90.42,P5,-1.364,P5,200.8,P5,-14.47,P5,94.75,P5,201.3,P5
9575,C94,,83.3%,Max,100.5,P4,28.02,P4,202.4,P24,1.317,P4,525.2,P24,17.88,P4,202.4,P24,525.2,P24
9575,C94,,83.3%,Min,-87.81,P5,-28.34,P5,93.41,P5,-1.364,P5,230.1,P5,-18.01,P5,97.62,P5,230.8,P5
9575,C94,,91.7%,Max,100.5,P4,28.02,P4,206.4,P24,1.317,P4,590.3,P24,21.53,P4,206.4,P24,590.3,P24
9575,C94,,91.7%,Min,-87.81,P5,-28.34,P5,96.41,P5,-1.364,P5,260.4,P5,-21.56,P5,100.5,P5,261.3,P5
9575,C94,6954,100.0%,Max,100.5,P4,28.02,P4,210.5,P24,1.317,P4,656.6,P24,25.17,P4,210.5,P24,656.6,P24
9575,C94,6954,100.0%,Min,-87.81,P5,-28.34,P5,99.41,P5,-1.364,P5,291.6,P5,-25.10,P5,103.4,P5,292.7,P5
9848,C94,7361,0.0%,Max,275.2,P2,13.60,P2,17.45,P2,6.738,P8,135.1,P2,11.73,P2,68.57,P21,135.6,P2
9848,C94,7361,0.0%,Min,-483.0,P3,-17.40,P3,-68.35,P21,2.122,P73,-122.9,P3,-15.24,P3,6.217,P40,4.831,P11
9848,C94,,6.3%,Max,275.2,P2,13.60,P2,19.52,P2,6.738,P8,112.7,P2,11.40,P2,65.78,P21,117.0,P3
9848,C94,,6.3%,Min,-483.0,P3,-17.40,P3,-65.56,P21,2.122,P73,-116.2,P3,-13.52,P3,5.428,P60,1.817,P84
9848,C94,,12.5%,Max,275.2,P2,13.60,P2,21.60,P2,6.738,P8,91.11,P2,11.07,P2,62.99,P21,109.4,P3
9848,C94,,12.5%,Min,-483.0,P3,-17.40,P3,-62.76,P21,2.122,P73,-108.8,P3,-11.79,P3,4.770,P64,0.6936,P63
9848,C94,,18.8%,Max,275.2,P2,13.60,P2,23.67,P2,6.738,P8,70.26,P2,10.74,P2,60.21,P21,101.1,P3
9848,C94,,18.8%,Min,-483.0,P3,-17.40,P3,-59.96,P21,2.122,P73,-100.6,P3,-10.07,P3,4.416,P64,2.166,P19
9848,C94,,25.0%,Max,275.2,P2,13.60,P2,25.74,P2,6.738,P8,50.16,P2,10.41,P2,57.42,P21,92.01,P3
9848,C94,,25.0%,Min,-483.0,P3,-17.40,P3,-57.16,P21,2.122,P73,-91.63,P3,-8.343,P3,4.750,P50,1.231,P42
9848,C94,,25.0%,Max,341.4,P2,1.880,P2,37.21,P2,5.133,P24,46.91,P2,1.003,P2,44.30,P3,89.27,P3
9848,C94,,25.0%,Min,-610.9,P3,-2.852,P3,-44.21,P3,1.691,P57,-89.26,P3,-1.119,P3,0.6015,P34,2.457,P42
9848,C94,,31.3%,Max,341.4,P2,1.880,P2,39.28,P2,5.133,P24,31.85,P2,1.650,P2,42.24,P3,76.02,P3
9848,C94,,31.3%,Min,-610.9,P3,-2.852,P3,-42.14,P3,1.691,P57,-76.01,P3,-1.410,P3,0.5341,P85,0.3234,P67
9848,C94,,37.5%,Max,341.4,P2,1.880,P2,41.36,P2,5.133,P24,17.54,P2,2.298,P2,41.40,P2,62.01,P3
9848,C94,,37.5%,Min,-610.9,P3,-2.852,P3,-40.07,P3,1.691,P57,-61.99,P3,-1.701,P3,0.9508,P88,0.04313,P93
9848,C94,,43.8%,Max,341.4,P2,1.880,P2,43.43,P2,5.133,P24,3.994,P2,2.945,P2,43.47,P2,47.25,P3
9848,C94,,43.8%,Min,-610.9,P3,-2.852,P3,-38.00,P3,1.691,P57,-47.21,P3,-1.991,P3,0.1151,P80,4.568,P4
9848,C94,,50.0%,Max,341.4,P2,1.880,P2,45.50,P2,5.133,P24,-8.792,P2,3.593,P2,45.54,P2,45.25,P30
9848,C94,,50.0%,Min,-610.9,P3,-2.852,P3,-35.92,P3,1.691,P57,-45.25,P30,-2.282,P3,0.3798,P58,9.080,P64
9848,C94,,50.0%,Max,383.4,P2,0.8900,P2,67.80,P2,-0.9197,P48,-6.240,P52,1.426,P2,67.80,P2,44.11,P18
9848,C94,,50.0%,Min,-700.8,P3,-1.648,P3,-16.08,P3,-4.247,P33,-44.11,P18,-1.152,P3,1.100,P57,6.241,P52
9848,C94,,56.2%,Max,383.4,P2,0.8900,P2,69.87,P2,-0.9197,P48,13.57,P48,1.881,P2,69.87,P2,37.15,P20
9848,C94,,56.2%,Min,-700.8,P3,-1.648,P3,-14.01,P3,-4.247,P33,-37.15,P20,-1.329,P3,0.4141,P67,0.5968,P12
9848,C94,,62.5%,Max,383.4,P2,0.8900,P2,71.94,P2,-0.9197,P48,34.65,P2,2.336,P2,71.95,P2,34.73,P2
9848,C94,,62.5%,Min,-700.8,P3,-1.648,P3,-11.94,P3,-4.247,P33,-34.31,P68,-1.506,P3,0.9062,P66,0.5071,P79
9848,C94,,68.7%,Max,383.4,P2,0.8900,P2,74.73,P13,-0.9197,P48,57.79,P2,2.790,P2,74.74,P13,57.86,P2
9848,C94,,68.7%,Min,-700.8,P3,-1.648,P3,-9.867,P3,-4.247,P33,-37.94,P69,-1.683,P3,0.7604,P44,0.3574,P59
9848,C94,,75.0%,Max,383.4,P2,0.8900,P2,77.53,P13,-0.9197,P48,81.69,P2,3.245,P2,77.54,P13,81.76,P2
9848,C94,,75.0%,Min,-700.8,P3,-1.648,P3,-7.795,P3,-4.247,P33,-40.94,P69,-1.859,P3,0.6208,P92,0.2656,P54
9848,C94,,75.0%,Max,408.3,P2,9.882,P4,97.61,P13,-1.598,P49,86.69,P2,4.965,P4,97.62,P13,86.78,P2
9848,C94,,75.0%,Min,-754.9,P3,-7.926,P5,1.232,P69,-7.038,P33,-41.47,P69,-4.022,P5,4.008,P69,1.636,P87
9848,C94,,81.2%,Max,408.3,P2,9.882,P4,100.4,P13,-1.598,P49,121.1,P12,5.766,P4,100.4,P13,121.1,P12
9848,C94,,81.2%,Min,-754.9,P3,-7.926,P5,3.305,P69,-7.038,P33,-40.64,P69,-5.542,P5,5.046,P69,1.081,P43
9848,C94,,87.5%,Max,408.3,P2,9.882,P4,103.2,P13,-1.598,P49,158.3,P12,6.568,P4,103.2,P13,158.3,P12
9848,C94,,87.5%,Min,-754.9,P3,-7.926,P5,5.377,P69,-7.038,P33,-39.05,P69,-7.061,P5,6.592,P69,1.116,P56
9848,C94,,93.7%,Max,408.3,P2,9.882,P4,106.0,P13,-1.598,P49,196.5,P12,7.370,P4,106.0,P13,196.5,P12
9848,C94,,93.7%,Min,-754.9,P3,-7.926,P5,7.450,P69,-7.038,P33,-36.70,P69,-8.580,P5,8.369,P69,1.373,P90
9848,C94,7362,100.0%,Max,408.3,P2,9.882,P4,108.8,P13,-1.598,P49,235.8,P12,8.172,P4,108.8,P13,235.8,P12
9848,C94,7362,100.0%,Min,-754.9,P3,-7.926,P5,9.522,P69,-7.038,P33,-33.58,P69,-10.10,P5,10.26,P69,3.209,P66
10035,C94,6171,0.0%,Max,160.5,P2,14.26,P2,-89.56,P80,1.341,P24,294.4,P8,11.13,P2,203.1,P8,294.4,P8
10035,C94,6171,0.0%,Min,-180.7,P3,-11.23,P3,-203.1,P8,0.2685,P3,80.87,P5,-8.789,P3,89.60,P80,81.01,P5
10035,C94,,5.8%,Max,160.5,P2,14.26,P2,-87.63,P80,1.341,P24,225.6,P8,9.981,P2,200.5,P8,225.6,P8
10035,C94,,5.8%,Min,-180.7,P3,-11.23,P3,-200.5,P8,0.2685,P3,48.86,P5,-8.666,P3,87.68,P80,49.11,P5
10035,C94,,11.7%,Max,160.5,P2,14.26,P2,-85.71,P80,1.341,P24,157.8,P8,8.827,P2,197.9,P8,157.8,P8
10035,C94,,11.7%,Min,-180.7,P3,-11.23,P3,-197.9,P8,0.2685,P3,17.52,P5,-8.544,P3,85.76,P80,18.25,P5
10035,C94,,17.5%,Max,160.5,P2,14.26,P2,-83.79,P80,1.341,P24,104.8,P4,7.674,P2,195.3,P8,104.9,P4
10035,C94,,17.5%,Min,-180.7,P3,-11.23,P3,-195.3,P8,0.2685,P3,-13.18,P5,-8.421,P3,83.83,P80,14.19,P5
10035,C94,,23.4%,Max,160.5,P2,14.26,P2,-81.86,P80,1.341,P24,66.55,P4,6.520,P2,192.7,P8,66.65,P4
10035,C94,,23.4%,Min,-180.7,P3,-11.23,P3,-192.7,P8,0.2685,P3,-43.21,P5,-8.299,P3,81.91,P80,1.861,P81
10035,C94,,23.4%,Max,165.4,P2,7.406,P2,-51.26,P4,2.721,P33,55.71,P4,5.421,P2,128.2,P8,55.81,P4
10035,C94,,23.4%,Min,-181.9,P3,-6.195,P3,-128.2,P8,1.027,P3,-51.08,P5,-4.552,P3,51.47,P4,0.7881,P53
10035,C94,,29.5%,Max,165.4,P2,7.406,P2,-49.25,P4,2.721,P33,27.07,P4,5.134,P2,125.5,P8,69.92,P5
10035,C94,,29.5%,Min,-181.9,P3,-6.195,P3,-125.5,P8,1.027,P3,-69.86,P5,-4.696,P3,49.47,P4,5.767,P2
10035,C94,,35.6%,Max,165.4,P2,7.406,P2,-47.24,P4,2.721,P33,-0.8612,P4,4.848,P2,122.7,P8,89.85,P6
10035,C94,,35.6%,Min,-181.9,P3,-6.195,P3,-122.7,P8,1.027,P3,-89.85,P6,-4.841,P3,47.46,P4,2.981,P4
10035,C94,,41.7%,Max,165.4,P2,7.406,P2,-45.23,P4,2.721,P33,-28.07,P4,4.562,P2,120.0,P8,131.9,P6
10035,C94,,41.7%,Min,-181.9,P3,-6.195,P3,-120.0,P8,1.027,P3,-131.9,P6,-4.985,P3,45.46,P4,28.19,P4
10035,C94,,47.8%,Max,165.4,P2,7.406,P2,-43.22,P4,2.721,P33,-54.57,P4,4.275,P2,117.3,P8,173.1,P6
10035,C94,,47.8%,Min,-181.9,P3,-6.195,P3,-117.3,P8,1.027,P3,-173.1,P6,-5.130,P3,43.46,P4,54.62,P4
10035,C94,,47.8%,Max,156.8,P2,6.899,P2,2.979,P4,-0.1772,P2,-59.66,P4,4.759,P2,21.18,P5,180.1,P6
10035,C94,,47.8%,Min,-169.7,P3,-6.157,P3,-20.91,P5,-1.053,P6,-180.1,P6,-4.272,P3,5.086,P4,59.73,P4
10035,C94,,54.2%,Max,156.8,P2,6.899,P2,5.081,P4,-0.1772,P2,-66.17,P4,4.793,P2,19.11,P5,184.3,P6
10035,C94,,54.2%,Min,-169.7,P3,-6.157,P3,-18.81,P5,-1.053,P6,-184.3,P6,-4.583,P3,4.827,P73,66.23,P4
10035,C94,,60.6%,Max,156.8,P2,6.899,P2,7.183,P4,-0.1772,P2,-71.90,P4,4.828,P2,17.04,P5,187.4,P6
10035,C94,,60.6%,Min,-169.7,P3,-6.157,P3,-16.70,P5,-1.053,P6,-187.4,P6,-4.894,P3,2.793,P73,71.95,P4
10035,C94,,66.9%,Max,156.8,P2,6.899,P2,9.284,P4,-0.1772,P2,-76.85,P4,4.862,P2,14.99,P5,189.5,P6
10035,C94,,66.9%,Min,-169.7,P3,-6.157,P3,-14.60,P5,-1.053,P6,-189.5,P6,-5.205,P3,1.064,P72,76.90,P4
10035,C94,,73.3%,Max,156.8,P2,6.899,P2,11.39,P4,-0.1772,P2,-80.79,P61,4.897,P2,12.95,P5,190.5,P33
10035,C94,,73.3%,Min,-169.7,P3,-6.157,P3,-12.50,P5,-1.053,P6,-190.5,P33,-5.516,P3,0.4609,P46,80.79,P61
10035,C94,,73.3%,Max,146.1,P2,10.29,P2,78.44,P6,0.4668,P4,-78.65,P61,7.010,P2,78.46,P6,184.9,P33
10035,C94,,73.3%,Min,-155.0,P3,-9.610,P3,23.72,P5,-0.3398,P5,-184.9,P33,-6.536,P3,24.32,P5,78.68,P61
10035,C94,,80.0%,Max,146.1,P2,10.29,P2,81.41,P6,0.4668,P4,-65.73,P4,7.363,P2,81.42,P6,154.4,P31
10035,C94,,80.0%,Min,-155.0,P3,-9.610,P3,25.92,P5,-0.3398,P5,-154.4,P31,-7.154,P3,26.47,P5,65.87,P4
10035,C94,,86.7%,Max,146.1,P2,10.29,P2,84.37,P6,0.4668,P4,-50.94,P4,7.715,P2,84.39,P6,122.8,P31
10035,C94,,86.7%,Min,-155.0,P3,-9.610,P3,28.11,P5,-0.3398,P5,-122.8,P31,-7.771,P3,28.63,P5,51.13,P4
10035,C94,,93.3%,Max,146.1,P2,10.29,P2,87.34,P6,0.4668,P4,-34.24,P2,8.067,P2,87.35,P6,90.32,P8
10035,C94,,93.3%,Min,-155.0,P3,-9.610,P3,30.31,P5,-0.3398,P5,-90.32,P8,-8.388,P3,30.79,P5,35.18,P2
10035,C94,6170,100.0%,Max,146.1,P2,10.29,P2,90.30,P6,0.4668,P4,-16.51,P2,8.419,P2,90.32,P6,56.96,P8
10035,C94,6170,100.0%,Min,-155.0,P3,-9.610,P3,32.51,P5,-0.3398,P5,-56.96,P8,-9.005,P3,32.95,P5,18.53,P2
10036,C94,6173,0.0%,Max,221.4,P2,18.39,P2,-78.90,P81,-1.517,P4,253.1,P8,14.18,P2,181.9,P8,253.1,P8
10036,C94,6173,0.0%,Min,-211.4,P3,-14.73,P3,-181.9,P8,-3.782,P31,78.76,P5,-11.28,P3,78.96,P81,79.09,P5
10036,C94,,5.6%,Max,221.4,P2,18.39,P2,-77.06,P81,-1.517,P4,194.1,P8,12.63,P2,179.4,P8,194.1,P8
10036,C94,,5.6%,Min,-211.4,P3,-14.73,P3,-179.4,P8,-3.782,P31,51.58,P5,-10.92,P3,77.12,P81,52.07,P5
10036,C94,,11.2%,Max,221.4,P2,18.39,P2,-75.21,P81,-1.517,P4,135.9,P8,11.07,P2,177.0,P8,135.9,P8
10036,C94,,11.2%,Min,-211.4,P3,-14.73,P3,-176.9,P8,-3.782,P31,25.00,P5,-10.56,P3,75.28,P81,26.01,P5
10036,C94,,16.8%,Max,221.4,P2,18.39,P2,-73.37,P81,-1.517,P4,79.96,P4,9.519,P2,174.5,P8,80.23,P4
10036,C94,,16.8%,Min,-211.4,P3,-14.73,P3,-174.5,P8,-3.782,P31,-0.9782,P5,-10.20,P3,73.43,P81,7.257,P5
10036,C94,,22.4%,Max,221.4,P2,18.39,P2,-71.52,P81,-1.517,P4,47.09,P4,7.965,P2,172.0,P8,47.39,P4
10036,C94,,22.4%,Min,-211.4,P3,-14.73,P3,-172.0,P8,-3.782,P31,-26.35,P5,-9.839,P3,71.59,P81,1.086,P79
10036,C94,,22.4%,Max,227.1,P2,9.229,P2,-46.16,P4,-1.490,P2,38.30,P4,6.742,P2,115.1,P8,38.54,P4
10036,C94,,22.4%,Min,-210.1,P3,-7.360,P3,-115.1,P8,-3.786,P6,-34.95,P5,-5.394,P3,46.52,P4,0.4427,P46
10036,C94,,28.4%,Max,227.1,P2,9.229,P2,-44.18,P4,-1.490,P2,13.18,P4,6.292,P2,112.4,P8,51.71,P5
10036,C94,,28.4%,Min,-210.1,P3,-7.360,P3,-112.4,P8,-3.786,P6,-51.62,P5,-5.600,P3,44.55,P4,6.512,P84
10036,C94,,34.4%,Max,227.1,P2,9.229,P2,-42.20,P4,-1.490,P2,-11.24,P4,5.842,P2,109.8,P8,80.96,P6
10036,C94,,34.4%,Min,-210.1,P3,-7.360,P3,-109.8,P8,-3.786,P6,-80.96,P6,-5.805,P3,42.59,P4,11.75,P4
10036,C94,,40.4%,Max,227.1,P2,9.229,P2,-40.22,P4,-1.490,P2,-34.98,P4,5.393,P2,107.1,P8,117.5,P6
10036,C94,,40.4%,Min,-210.1,P3,-7.360,P3,-107.1,P8,-3.786,P6,-117.5,P6,-6.011,P3,40.63,P4,35.11,P4
10036,C94,,46.4%,Max,227.1,P2,9.229,P2,-38.24,P4,-1.490,P2,-58.02,P4,4.943,P2,104.4,P8,153.0,P6
10036,C94,,46.4%,Min,-210.1,P3,-7.360,P3,-104.4,P8,-3.786,P6,-153.0,P6,-6.216,P3,38.67,P4,58.08,P4
10036,C94,,46.4%,Max,217.4,P2,7.902,P2,8.634,P4,-0.2209,P4,-60.43,P4,5.470,P2,11.41,P5,158.6,P6
10036,C94,,46.4%,Min,-195.8,P3,-6.743,P3,-10.80,P5,-0.7782,P8,-158.6,P6,-4.678,P3,0.2654,P10,60.52,P4
10036,C94,,52.9%,Max,217.4,P2,7.902,P2,10.76,P4,-0.2209,P4,-63.40,P4,5.474,P2,11.80,P4,156.8,P6
10036,C94,,52.9%,Min,-195.8,P3,-6.743,P3,-8.674,P5,-0.7782,P8,-156.8,P6,-5.118,P3,0.1561,P41,63.49,P4
10036,C94,,59.4%,Max,217.4,P2,7.902,P2,12.89,P4,-0.2209,P4,-64.92,P61,5.478,P2,13.77,P4,154.0,P6
10036,C94,,59.4%,Min,-195.8,P3,-6.743,P3,-6.548,P5,-0.7782,P8,-154.0,P6,-5.558,P3,0.4161,P92,64.92,P61
10036,C94,,65.8%,Max,217.4,P2,7.902,P2,15.01,P4,-0.2209,P4,-64.29,P61,5.481,P2,15.78,P4,150.3,P33
10036,C94,,65.8%,Min,-195.8,P3,-6.743,P3,-4.422,P5,-0.7782,P8,-150.3,P33,-5.998,P3,2.056,P82,64.29,P61
10036,C94,,72.3%,Max,217.4,P2,7.902,P2,17.14,P4,-0.2209,P4,-62.82,P49,5.485,P2,17.81,P4,145.7,P33
10036,C94,,72.3%,Min,-195.8,P3,-6.743,P3,-2.295,P5,-0.7782,P8,-145.7,P33,-6.438,P3,4.032,P82,62.82,P49
10036,C94,,72.3%,Max,202.0,P2,10.64,P2,95.82,P6,-0.1807,P2,-58.72,P49,7.488,P2,95.83,P6,136.5,P33
10036,C94,,72.3%,Min,-185.5,P3,-10.26,P3,34.81,P82,-1.009,P24,-136.5,P33,-7.144,P3,34.93,P82,58.72,P49
10036,C94,,79.2%,Max,202.0,P2,10.64,P2,98.90,P6,-0.1807,P2,-42.06,P73,7.980,P2,98.91,P6,98.25,P8
10036,C94,,79.2%,Min,-185.5,P3,-10.26,P3,37.09,P82,-1.009,P24,-98.25,P8,-7.788,P3,37.20,P82,42.07,P73
10036,C94,,86.1%,Max,202.0,P2,10.64,P2,102.0,P6,-0.1807,P2,-20.61,P4,8.471,P2,102.0,P6,59.20,P8
10036,C94,,86.1%,Min,-185.5,P3,-10.26,P3,39.37,P82,-1.009,P24,-59.20,P8,-8.432,P3,39.48,P82,21.29,P4
10036,C94,,93.1%,Max,202.0,P2,10.64,P2,105.1,P6,-0.1807,P2,2.008,P4,8.962,P2,105.1,P6,23.60,P3
10036,C94,,93.1%,Min,-185.5,P3,-10.26,P3,41.65,P82,-1.009,P24,-22.90,P5,-9.076,P3,41.76,P82,4.951,P73
10036,C94,6172,100.0%,Max,202.0,P2,10.64,P2,108.1,P6,-0.1807,P2,29.21,P6,9.454,P2,108.2,P6,29.23,P6
10036,C94,6172,100.0%,Min,-185.5,P3,-10.26,P3,43.94,P82,-1.009,P24,-2.135,P5,-9.720,P3,44.03,P82,2.943,P91
10037,C94,6170,0.0%,Max,142.5,P2,10.91,P2,-47.93,P2,0.4867,P4,-15.42,P2,10.30,P2,108.4,P6,55.22,P8
10037,C94,6170,0.0%,Min,-148.0,P3,-10.77,P3,-108.4,P6,-0.3305,P5,-55.20,P8,-10.15,P3,48.83,P67,18.55,P2
10037,C94,,8.3%,Max,142.5,P2,10.91,P2,-45.50,P2,0.4867,P4,-38.04,P2,9.815,P2,105.1,P6,100.9,P8
10037,C94,,8.3%,Min,-148.0,P3,-10.77,P3,-105.1,P6,-0.3305,P5,-100.9,P8,-9.735,P3,46.40,P67,39.29,P2
10037,C94,,16.7%,Max,142.5,P2,10.91,P2,-43.07,P2,0.4867,P4,-59.62,P2,9.335,P2,101.8,P6,145.2,P8
10037,C94,,16.7%,Min,-148.0,P3,-10.77,P3,-101.8,P6,-0.3305,P5,-145.2,P8,-9.315,P3,43.97,P67,60.34,P2
10037,C94,,25.0%,Max,142.5,P2,10.91,P2,-40.64,P2,0.4867,P4,-80.15,P2,8.855,P2,98.55,P6,188.1,P8
10037,C94,,25.0%,Min,-148.0,P3,-10.77,P3,-98.53,P6,-0.3305,P5,-188.1,P8,-8.895,P3,41.54,P67,80.63,P2
10037,C94,,33.3%,Max,142.5,P2,10.91,P2,-38.21,P2,0.4867,P4,-98.89,P73,8.374,P2,95.27,P6,229.6,P8
10037,C94,,33.3%,Min,-148.0,P3,-10.77,P3,-95.25,P6,-0.3305,P5,-229.6,P8,-8.475,P3,39.11,P67,98.90,P73
10037,C94,,33.3%,Max,111.4,P2,8.702,P2,1.714,P2,0.8033,P6,-102.7,P73,7.477,P2,9.374,P3,238.3,P8
10037,C94,,33.3%,Min,-113.7,P3,-8.814,P3,-3.191,P3,0.05023,P5,-238.3,P8,-7.588,P3,0.6220,P67,102.7,P73
10037,C94,,41.7%,Max,111.4,P2,8.702,P2,4.222,P8,0.8033,P6,-103.0,P73,7.503,P2,9.638,P2,237.2,P8
10037,C94,,41.7%,Min,-113.7,P3,-8.814,P3,-0.7615,P3,0.05023,P5,-237.2,P8,-7.566,P3,0.7727,P47,103.0,P73
10037,C94,,50.0%,Max,111.4,P2,8.702,P2,7.502,P8,0.8033,P6,-102.3,P73,7.529,P2,10.91,P2,234.6,P8
10037,C94,,50.0%,Min,-113.7,P3,-8.814,P3,1.668,P3,0.05023,P5,-234.6,P8,-7.544,P3,3.116,P53,102.3,P73
10037,C94,,58.3%,Max,111.4,P2,8.702,P2,10.78,P8,0.8033,P6,-100.4,P73,7.555,P2,12.52,P2,230.7,P8
10037,C94,,58.3%,Min,-113.7,P3,-8.814,P3,4.098,P3,0.05023,P5,-230.7,P8,-7.522,P3,5.505,P49,100.4,P73
10037,C94,,66.7%,Max,111.4,P2,8.702,P2,14.06,P8,0.8033,P6,-97.59,P73,7.582,P2,14.37,P2,225.4,P8
10037,C94,,66.7%,Min,-113.7,P3,-8.814,P3,6.528,P3,0.05023,P5,-225.4,P8,-7.500,P3,7.904,P49,97.60,P73
10037,C94,,66.7%,Max,57.76,P2,11.69,P2,116.2,P8,-0.5678,P2,-91.94,P73,8.656,P2,116.3,P8,212.3,P8
10037,C94,,66.7%,Min,-57.71,P3,-12.02,P3,48.32,P73,-1.583,P8,-212.3,P8,-8.879,P3,48.34,P73,91.94,P73
10037,C94,,75.0%,Max,57.76,P2,11.69,P2,119.5,P8,-0.5678,P2,-70.63,P73,9.443,P2,119.5,P8,161.6,P8
10037,C94,,75.0%,Min,-57.71,P3,-12.02,P3,50.75,P73,-1.583,P8,-161.6,P8,-9.524,P3,50.76,P73,70.63,P73
10037,C94,,83.3%,Max,57.76,P2,11.69,P2,122.8,P8,-0.5678,P2,-48.24,P80,10.23,P2,122.8,P8,109.5,P8
10037,C94,,83.3%,Min,-57.71,P3,-12.02,P3,53.18,P73,-1.583,P8,-109.5,P8,-10.17,P3,53.19,P73,48.24,P80
10037,C94,,91.7%,Max,57.76,P2,11.69,P2,126.1,P8,-0.5678,P2,-24.50,P2,11.02,P2,126.1,P8,55.97,P8
10037,C94,,91.7%,Min,-57.71,P3,-12.02,P3,55.61,P73,-1.583,P8,-55.96,P8,-10.81,P3,55.62,P73,24.87,P80
10037,C94,6126,100.0%,Max,57.76,P2,11.69,P2,129.4,P8,-0.5678,P2,0.8940,P4,11.80,P2,129.4,P8,11.81,P2
10037,C94,6126,100.0%,Min,-57.71,P3,-12.02,P3,58.04,P73,-1.583,P8,-1.934,P5,-11.46,P3,58.05,P73,0.4849,P67
10038,C94,6174,0.0%,Max,108.2,P2,13.83,P2,-83.80,P4,-1.468,P81,214.8,P8,10.94,P2,197.4,P8,214.8,P8
10038,C94,6174,0.0%,Min,-130.8,P3,-10.44,P3,-197.4,P8,-4.337,P23,8.278,P5,-8.351,P3,84.34,P4,9.619,P5
10038,C94,,6.0%,Max,108.2,P2,13.83,P2,-81.81,P4,-1.468,P81,167.2,P4,9.797,P2,194.7,P8,167.3,P4
10038,C94,,6.0%,Min,-130.8,P3,-10.44,P3,-194.7,P8,-4.337,P23,-21.14,P5,-8.408,P3,82.36,P4,21.76,P5
10038,C94,,12.1%,Max,108.2,P2,13.83,P2,-79.82,P4,-1.468,P81,125.3,P4,8.658,P2,192.0,P8,125.4,P4
10038,C94,,12.1%,Min,-130.8,P3,-10.44,P3,-192.0,P8,-4.337,P23,-49.86,P5,-8.465,P3,80.38,P4,12.02,P3
10038,C94,,18.1%,Max,108.2,P2,13.83,P2,-77.83,P4,-1.468,P81,84.01,P4,7.520,P2,189.3,P8,84.14,P4
10038,C94,,18.1%,Min,-130.8,P3,-10.44,P3,-189.3,P8,-4.337,P23,-77.88,P5,-8.522,P3,78.40,P4,1.039,P43
10038,C94,,24.2%,Max,108.2,P2,13.83,P2,-75.84,P4,-1.468,P81,43.47,P4,6.381,P2,186.6,P8,105.4,P5
10038,C94,,24.2%,Min,-130.8,P3,-10.44,P3,-186.6,P8,-4.337,P23,-105.2,P5,-8.579,P3,76.43,P4,9.579,P2
10038,C94,,24.2%,Max,109.7,P2,7.830,P2,-14.43,P4,7.914,P6,33.12,P4,5.629,P2,81.96,P8,109.5,P5
10038,C94,,24.2%,Min,-130.1,P3,-6.274,P3,-81.96,P8,2.321,P5,-109.5,P5,-4.598,P3,15.35,P4,5.843,P2
10038,C94,,30.3%,Max,109.7,P2,7.830,P2,-12.40,P4,7.914,P6,8.384,P4,5.337,P2,79.21,P8,115.0,P5
10038,C94,,30.3%,Min,-130.1,P3,-6.274,P3,-79.21,P8,2.321,P5,-114.9,P5,-4.867,P3,13.46,P4,9.065,P4
10038,C94,,36.5%,Max,109.7,P2,7.830,P2,-10.36,P4,7.914,P6,-15.62,P4,5.045,P2,76.46,P8,132.1,P6
10038,C94,,36.5%,Min,-130.1,P3,-6.274,P3,-76.46,P8,2.321,P5,-132.1,P6,-5.137,P3,11.61,P4,15.94,P4
10038,C94,,42.7%,Max,109.7,P2,7.830,P2,-8.323,P4,7.914,P6,-38.89,P4,4.753,P2,73.71,P8,157.8,P6
10038,C94,,42.7%,Min,-130.1,P3,-6.274,P3,-73.71,P8,2.321,P5,-157.8,P6,-5.406,P3,9.832,P4,38.99,P4
10038,C94,,48.9%,Max,109.7,P2,7.830,P2,-6.285,P4,7.914,P6,-61.42,P4,4.461,P2,70.96,P8,182.5,P6
10038,C94,,48.9%,Min,-130.1,P3,-6.274,P3,-70.96,P8,2.321,P5,-182.5,P6,-5.676,P3,8.180,P4,61.47,P4
10038,C94,,48.9%,Max,97.43,P2,5.981,P2,28.32,P4,2.037,P2,-68.69,P4,4.375,P2,28.58,P4,189.5,P6
10038,C94,,48.9%,Min,-117.5,P3,-5.059,P3,-15.46,P5,-0.5359,P3,-189.5,P6,-3.743,P3,3.462,P87,68.74,P4
10038,C94,,55.2%,Max,97.43,P2,5.981,P2,30.40,P4,2.037,P2,-70.93,P4,4.212,P2,30.64,P4,183.4,P27
10038,C94,,55.2%,Min,-117.5,P3,-5.059,P3,-13.38,P5,-0.5359,P3,-183.4,P27,-3.921,P3,5.528,P87,70.98,P4
10038,C94,,61.5%,Max,97.43,P2,5.981,P2,32.49,P4,2.037,P2,-72.40,P4,4.050,P2,32.71,P4,176.5,P27
10038,C94,,61.5%,Min,-117.5,P3,-5.059,P3,-11.30,P5,-0.5359,P3,-176.5,P27,-4.098,P3,7.604,P87,72.44,P4
10038,C94,,67.8%,Max,97.43,P2,5.981,P2,34.57,P4,2.037,P2,-72.24,P2,3.888,P2,34.78,P4,168.5,P27
10038,C94,,67.8%,Min,-117.5,P3,-5.059,P3,-9.213,P5,-0.5359,P3,-168.5,P27,-4.276,P3,6.356,P3,72.35,P2
10038,C94,,74.1%,Max,97.43,P2,5.981,P2,36.66,P4,2.037,P2,-67.77,P56,3.725,P2,36.85,P4,159.5,P27
10038,C94,,74.1%,Min,-117.5,P3,-5.059,P3,-7.129,P5,-0.5359,P3,-159.5,P27,-4.454,P3,5.358,P3,67.77,P68
10038,C94,,74.1%,Max,74.82,P2,6.031,P2,112.4,P6,2.212,P6,-56.62,P2,3.703,P2,112.4,P6,138.4,P27
10038,C94,,74.1%,Min,-97.75,P3,-5.734,P3,34.11,P5,0.5735,P5,-138.4,P27,-3.645,P3,34.26,P5,56.74,P2
10038,C94,,80.6%,Max,74.82,P2,6.031,P2,115.3,P6,2.212,P6,-30.20,P2,4.034,P2,115.3,P6,96.88,P23
10038,C94,,80.6%,Min,-97.75,P3,-5.734,P3,36.24,P5,0.5735,P5,-96.88,P23,-4.088,P3,36.38,P5,30.47,P2
10038,C94,,87.1%,Max,74.82,P2,6.031,P2,118.1,P6,2.212,P6,-1.403,P4,4.365,P2,118.1,P6,54.30,P23
10038,C94,,87.1%,Min,-97.75,P3,-5.734,P3,38.37,P5,0.5735,P5,-54.30,P23,-4.531,P3,38.50,P5,2.851,P4
10038,C94,,93.5%,Max,74.82,P2,6.031,P2,121.0,P6,2.212,P6,29.42,P4,4.696,P2,121.0,P6,37.74,P5
10038,C94,,93.5%,Min,-97.75,P3,-5.734,P3,40.50,P5,0.5735,P5,-37.63,P5,-4.974,P3,40.63,P5,0.4222,P44
10038,C94,6164,100.0%,Max,74.82,P2,6.031,P2,123.9,P6,2.212,P6,61.04,P4,5.027,P2,123.9,P6,61.11,P4
10038,C94,6164,100.0%,Min,-97.75,P3,-5.734,P3,42.63,P5,0.5735,P5,-21.20,P5,-5.417,P3,42.75,P5,7.162,P59
10039,C94,6164,0.0%,Max,282.0,P2,23.77,P2,-157.4,P2,-1.353,P2,197.4,P27,19.23,P2,340.7,P8,197.5,P27
10039,C94,6164,0.0%,Min,-177.7,P3,-22.57,P3,-340.7,P27,-3.644,P25,82.66,P3,-17.69,P3,159.2,P2,84.53,P3
10039,C94,,4.2%,Max,282.0,P2,23.77,P2,-154.3,P2,-1.353,P2,86.62,P27,17.40,P2,336.6,P8,86.64,P27
10039,C94,,4.2%,Min,-177.7,P3,-22.57,P3,-336.5,P27,-3.644,P25,23.80,P3,-16.26,P3,156.2,P2,28.04,P5
10039,C94,,8.4%,Max,282.0,P2,23.77,P2,-151.3,P2,-1.353,P2,14.67,P4,15.58,P2,332.4,P8,37.13,P3
10039,C94,,8.4%,Min,-177.7,P3,-22.57,P3,-332.4,P27,-3.644,P25,-35.49,P5,-14.82,P3,153.1,P2,1.258,P63
10039,C94,,12.5%,Max,282.0,P2,23.77,P2,-148.2,P2,-1.353,P2,-41.91,P4,13.75,P2,328.2,P8,135.7,P32
10039,C94,,12.5%,Min,-177.7,P3,-22.57,P3,-328.2,P27,-3.644,P25,-135.7,P32,-13.39,P3,150.1,P2,43.08,P4
10039,C94,,16.7%,Max,282.0,P2,23.77,P2,-145.1,P2,-1.353,P2,-97.48,P4,11.92,P2,324.1,P8,242.3,P32
10039,C94,,16.7%,Min,-177.7,P3,-22.57,P3,-324.1,P27,-3.644,P25,-242.3,P32,-11.95,P3,147.0,P2,97.88,P4
10039,C94,,16.7%,Max,248.9,P2,20.00,P2,-128.9,P2,-1.245,P2,-110.1,P4,12.06,P2,284.3,P6,268.5,P32
10039,C94,,16.7%,Min,-144.6,P3,-20.53,P3,-284.2,P6,-3.812,P8,-268.5,P32,-12.08,P3,130.5,P2,110.4,P4
10039,C94,,20.9%,Max,248.9,P2,20.00,P2,-125.8,P2,-1.245,P2,-154.3,P4,12.78,P2,280.1,P6,360.8,P32
10039,C94,,20.9%,Min,-144.6,P3,-20.53,P3,-280.1,P6,-3.812,P8,-360.8,P32,-12.62,P3,127.4,P2,154.5,P4
10039,C94,,25.1%,Max,248.9,P2,20.00,P2,-122.8,P2,-1.245,P2,-197.5,P4,13.50,P2,275.9,P6,451.7,P33
10039,C94,,25.1%,Min,-144.6,P3,-20.53,P3,-275.9,P6,-3.812,P8,-451.7,P33,-13.16,P3,124.4,P2,197.7,P4
10039,C94,,29.3%,Max,248.9,P2,20.00,P2,-119.7,P2,-1.245,P2,-239.6,P4,14.21,P2,271.8,P6,541.3,P33
10039,C94,,29.3%,Min,-144.6,P3,-20.53,P3,-271.8,P6,-3.812,P8,-541.3,P33,-13.71,P3,121.3,P2,239.8,P4
10039,C94,,33.5%,Max,248.9,P2,20.00,P2,-116.6,P2,-1.245,P2,-280.0,P2,14.93,P2,267.6,P6,629.6,P33
10039,C94,,33.5%,Min,-144.6,P3,-20.53,P3,-267.6,P6,-3.812,P8,-629.6,P33,-14.25,P3,118.3,P2,280.4,P2
10039,C94,,33.5%,Max,208.4,P4,22.15,P2,8.053,P6,1.989,P4,-283.0,P2,16.92,P2,23.67,P3,637.8,P33
10039,C94,,33.5%,Min,-108.1,P5,-23.26,P3,-7.510,P5,-0.6783,P5,-637.8,P33,-17.43,P3,0.2655,P46,283.5,P2
10039,C94,,37.6%,Max,208.4,P4,22.15,P2,12.21,P6,1.989,P4,-282.8,P2,15.98,P2,23.53,P2,635.0,P33
10039,C94,,37.6%,Min,-108.1,P5,-23.26,P3,-4.428,P5,-0.6783,P5,-635.0,P33,-16.12,P3,0.1901,P69,283.3,P2
10039,C94,,41.8%,Max,208.4,P4,22.15,P2,16.37,P6,1.989,P4,-281.6,P2,15.04,P2,24.74,P2,630.9,P33
10039,C94,,41.8%,Min,-108.1,P5,-23.26,P3,-1.347,P5,-0.6783,P5,-630.9,P33,-14.81,P3,2.866,P67,282.0,P2
10039,C94,,46.0%,Max,208.4,P4,22.15,P2,20.53,P6,1.989,P4,-279.3,P2,14.10,P2,26.26,P2,625.4,P33
10039,C94,,46.0%,Min,-108.1,P5,-23.26,P3,1.734,P5,-0.6783,P5,-625.4,P33,-13.51,P3,5.926,P67,279.7,P2
10039,C94,,50.2%,Max,208.4,P4,22.15,P2,24.69,P6,1.989,P4,-276.1,P2,13.16,P2,28.03,P2,618.5,P33
10039,C94,,50.2%,Min,-108.1,P5,-23.26,P3,4.815,P5,-0.6783,P5,-618.5,P33,-12.20,P3,8.732,P91,276.4,P2
10039,C94,,50.2%,Max,180.6,P4,23.60,P2,71.26,P6,0.3322,P4,-274.5,P2,14.04,P2,71.36,P6,615.0,P33
10039,C94,,50.2%,Min,-84.56,P5,-24.30,P3,26.47,P87,-1.877,P5,-615.0,P33,-13.98,P3,27.02,P91,274.9,P2
10039,C94,,54.4%,Max,180.6,P4,23.60,P2,75.42,P6,0.3322,P4,-264.2,P2,15.01,P2,75.52,P6,591.5,P33
10039,C94,,54.4%,Min,-84.56,P5,-24.30,P3,29.55,P87,-1.877,P5,-591.5,P33,-14.73,P3,30.08,P91,264.6,P2
10039,C94,,58.5%,Max,180.6,P4,23.60,P2,79.58,P6,0.3322,P4,-252.8,P2,15.99,P2,79.67,P6,566.7,P33
10039,C94,,58.5%,Min,-84.56,P5,-24.30,P3,32.63,P87,-1.877,P5,-566.7,P33,-15.47,P3,33.14,P91,253.3,P2
10039,C94,,62.7%,Max,180.6,P4,23.60,P2,83.74,P6,0.3322,P4,-240.5,P2,16.97,P2,83.83,P6,540.5,P33
10039,C94,,62.7%,Min,-84.56,P5,-24.30,P3,35.71,P87,-1.877,P5,-540.5,P33,-16.22,P3,36.20,P91,241.1,P2
10039,C94,,66.9%,Max,180.6,P4,23.60,P2,87.90,P6,0.3322,P4,-227.1,P2,17.95,P2,87.98,P6,513.0,P8
10039,C94,,66.9%,Min,-84.56,P5,-24.30,P3,38.79,P87,-1.877,P5,-513.0,P8,-16.97,P3,39.27,P91,227.8,P2
10039,C94,,66.9%,Max,141.3,P4,32.57,P2,415.2,P6,5.529,P8,-219.5,P2,23.95,P2,415.2,P6,495.8,P8
10039,C94,,66.9%,Min,-43.69,P5,-30.34,P3,176.4,P87,0.6026,P5,-495.8,P8,-22.00,P3,176.6,P87,220.8,P2
10039,C94,,71.0%,Max,141.3,P4,32.57,P2,419.3,P6,5.529,P8,-156.4,P2,22.29,P2,419.3,P6,363.3,P8
10039,C94,,71.0%,Min,-43.69,P5,-30.34,P3,179.5,P87,0.6026,P5,-363.3,P8,-21.07,P3,179.7,P87,158.0,P2
10039,C94,,75.2%,Max,141.3,P4,32.57,P2,423.5,P6,5.529,P8,-92.34,P2,20.64,P2,423.5,P6,229.4,P8
10039,C94,,75.2%,Min,-43.69,P5,-30.34,P3,182.5,P87,0.6026,P5,-229.4,P8,-20.13,P3,182.7,P87,94.62,P2
10039,C94,,79.3%,Max,141.3,P4,32.57,P2,427.6,P6,5.529,P8,-27.28,P2,18.98,P2,427.6,P6,94.27,P8
10039,C94,,79.3%,Min,-43.69,P5,-30.34,P3,185.6,P87,0.6026,P5,-94.26,P8,-19.19,P3,185.8,P87,31.07,P4
10039,C94,,83.5%,Max,141.3,P4,32.57,P2,431.7,P6,5.529,P8,57.44,P6,17.33,P2,431.7,P6,57.46,P6
10039,C94,,83.5%,Min,-43.69,P5,-30.34,P3,188.6,P87,0.6026,P5,3.321,P91,-18.26,P3,188.8,P87,4.322,P93
10039,C94,,83.5%,Max,107.5,P25,62.70,P2,460.8,P6,3.171,P4,92.08,P6,30.73,P2,460.8,P6,92.09,P6
10039,C94,,83.5%,Min,2.088,P3,-59.40,P3,200.5,P87,-1.071,P5,18.43,P91,-29.25,P3,201.1,P91,18.70,P91
10039,C94,,87.6%,Max,107.5,P25,62.70,P2,464.9,P6,3.171,P4,242.0,P6,35.00,P2,464.9,P6,242.0,P6
10039,C94,,87.6%,Min,2.088,P3,-59.40,P3,203.5,P87,-1.071,P5,83.96,P91,-34.59,P3,204.2,P91,83.96,P91
10039,C94,,91.7%,Max,107.5,P25,62.70,P2,469.0,P6,3.171,P4,393.2,P6,39.28,P2,469.0,P6,393.2,P6
10039,C94,,91.7%,Min,2.088,P3,-59.40,P3,206.6,P87,-1.071,P5,150.5,P91,-39.94,P3,207.2,P91,150.5,P91
10039,C94,,95.9%,Max,107.5,P25,62.70,P2,473.1,P6,3.171,P4,545.7,P6,43.55,P2,473.1,P6,545.7,P6
10039,C94,,95.9%,Min,2.088,P3,-59.40,P3,209.6,P87,-1.071,P5,218.0,P91,-45.29,P3,210.2,P91,218.1,P91
10039,C94,6275,100.0%,Max,107.5,P25,62.70,P2,477.2,P6,3.171,P4,699.6,P6,47.83,P2,477.3,P6,699.6,P6
10039,C94,6275,100.0%,Min,2.088,P3,-59.40,P3,212.7,P87,-1.071,P5,286.5,P91,-50.63,P3,213.3,P91,286.7,P91
10041,C94,6176,0.0%,Max,219.0,P2,12.50,P2,-79.93,P81,2.899,P32,269.6,P8,10.39,P2,184.0,P8,269.6,P8
10041,C94,6176,0.0%,Min,-227.5,P3,-16.69,P3,-184.0,P8,1.170,P5,82.53,P5,-14.06,P3,79.94,P81,83.11,P5
10041,C94,,6.3%,Max,219.0,P2,12.50,P2,-77.87,P81,2.899,P32,203.1,P8,10.36,P2,181.2,P8,203.1,P8
10041,C94,,6.3%,Min,-227.5,P3,-16.69,P3,-181.2,P8,1.170,P5,52.08,P5,-12.51,P3,77.89,P81,52.79,P5
10041,C94,,12.5%,Max,219.0,P2,12.50,P2,-75.81,P81,2.899,P32,137.5,P8,10.33,P2,178.4,P8,137.5,P8
10041,C94,,12.5%,Min,-227.5,P3,-16.69,P3,-178.4,P8,1.170,P5,22.38,P5,-10.95,P3,75.83,P81,23.60,P5
10041,C94,,18.8%,Max,219.0,P2,12.50,P2,-73.75,P81,2.899,P32,79.42,P4,10.30,P2,175.7,P8,79.75,P4
10041,C94,,18.8%,Min,-227.5,P3,-16.69,P3,-175.6,P8,1.170,P5,-6.574,P5,-9.392,P3,73.77,P81,9.126,P5
10041,C94,,25.0%,Max,219.0,P2,12.50,P2,-71.70,P81,2.899,P32,42.26,P4,10.28,P2,172.9,P8,42.94,P4
10041,C94,,25.0%,Min,-227.5,P3,-16.69,P3,-172.9,P8,1.170,P5,-34.77,P5,-7.836,P3,71.71,P81,0.5284,P50
10041,C94,,25.0%,Max,215.8,P2,7.544,P2,-40.84,P4,3.703,P6,32.13,P4,5.789,P2,105.2,P8,45.04,P5
10041,C94,,25.0%,Min,-216.0,P3,-9.615,P3,-105.2,P8,1.529,P87,-44.82,P5,-7.393,P3,41.01,P4,0.3897,P69
10041,C94,,31.3%,Max,215.8,P2,7.544,P2,-38.78,P4,3.703,P6,7.587,P4,5.999,P2,102.5,P8,60.07,P5
10041,C94,,31.3%,Min,-216.0,P3,-9.615,P3,-102.5,P8,1.529,P87,-59.94,P5,-6.848,P3,38.96,P4,8.200,P4
10041,C94,,37.5%,Max,215.8,P2,7.544,P2,-36.72,P4,3.703,P6,-16.20,P4,6.208,P2,99.68,P8,91.99,P6
10041,C94,,37.5%,Min,-216.0,P3,-9.615,P3,-99.68,P8,1.529,P87,-91.99,P6,-6.303,P3,36.91,P4,16.56,P4
10041,C94,,43.8%,Max,215.8,P2,7.544,P2,-34.66,P4,3.703,P6,-39.25,P4,6.418,P2,96.91,P8,126.1,P6
10041,C94,,43.8%,Min,-216.0,P3,-9.615,P3,-96.90,P8,1.529,P87,-126.1,P6,-5.758,P3,34.86,P4,39.42,P4
10041,C94,,50.0%,Max,215.8,P2,7.544,P2,-32.61,P4,3.703,P6,-61.54,P4,6.627,P2,94.13,P8,159.2,P6
10041,C94,,50.0%,Min,-216.0,P3,-9.615,P3,-94.12,P8,1.529,P87,-159.2,P6,-5.213,P3,32.81,P4,61.66,P4
10041,C94,,50.0%,Max,203.2,P2,7.188,P2,15.44,P4,1.200,P8,-63.27,P4,4.856,P2,15.88,P4,163.8,P6
10041,C94,,50.0%,Min,-200.5,P3,-8.475,P3,-6.024,P5,0.3908,P5,-163.8,P6,-5.694,P3,0.1466,P91,63.32,P4
10041,C94,,56.2%,Max,203.2,P2,7.188,P2,17.61,P6,1.200,P8,-64.50,P4,5.310,P2,17.89,P4,157.9,P6
10041,C94,,56.2%,Min,-200.5,P3,-8.475,P3,-3.966,P5,0.3908,P5,-157.9,P6,-5.679,P3,1.838,P84,64.57,P4
10041,C94,,62.5%,Max,203.2,P2,7.188,P2,20.39,P6,1.200,P8,-64.99,P4,5.764,P2,20.44,P6,150.9,P6
10041,C94,,62.5%,Min,-200.5,P3,-8.475,P3,-1.907,P5,0.3908,P5,-150.9,P6,-5.664,P3,3.825,P84,65.07,P4
10041,C94,,68.7%,Max,203.2,P2,7.188,P2,23.17,P6,1.200,P8,-63.12,P49,6.218,P2,23.21,P6,143.4,P31
10041,C94,,68.7%,Min,-200.5,P3,-8.475,P3,0.1511,P5,0.3908,P5,-143.4,P31,-5.649,P3,5.013,P5,63.12,P49
10041,C94,,75.0%,Max,203.2,P2,7.188,P2,25.95,P6,1.200,P8,-58.70,P73,6.671,P2,25.99,P6,135.5,P8
10041,C94,,75.0%,Min,-200.5,P3,-8.475,P3,2.209,P5,0.3908,P5,-135.5,P8,-5.634,P3,5.476,P5,58.71,P73
10041,C94,,75.0%,Max,188.7,P2,12.17,P2,100.7,P6,1.115,P24,-54.81,P73,7.506,P2,100.7,P6,127.3,P8
10041,C94,,75.0%,Min,-190.2,P3,-13.30,P3,36.39,P84,0.2855,P5,-127.3,P8,-8.277,P3,36.46,P84,54.82,P73
10041,C94,,81.2%,Max,188.7,P2,12.17,P2,103.4,P6,1.115,P24,-38.37,P80,8.409,P2,103.5,P6,91.68,P8
10041,C94,,81.2%,Min,-190.2,P3,-13.30,P3,38.44,P84,0.2855,P5,-91.68,P8,-8.767,P3,38.52,P84,38.38,P80
10041,C94,,87.5%,Max,188.7,P2,12.17,P2,106.2,P6,1.115,P24,-18.79,P4,9.312,P2,106.2,P6,55.09,P8
10041,C94,,87.5%,Min,-190.2,P3,-13.30,P3,40.50,P84,0.2855,P5,-55.09,P8,-9.257,P3,40.57,P84,19.77,P4
10041,C94,,93.7%,Max,188.7,P2,12.17,P2,109.0,P6,1.115,P24,2.652,P4,10.22,P2,109.0,P6,22.93,P3
10041,C94,,93.7%,Min,-190.2,P3,-13.30,P3,42.56,P84,0.2855,P5,-21.37,P5,-9.748,P3,42.63,P84,3.184,P80
10041,C94,6175,100.0%,Max,188.7,P2,12.17,P2,111.8,P6,1.115,P24,29.45,P6,11.12,P2,111.8,P6,29.48,P6
10041,C94,6175,100.0%,Min,-190.2,P3,-13.30,P3,44.62,P84,0.2855,P5,-2.403,P5,-10.24,P3,44.68,P84,1.338,P91
10042,C94,6178,0.0%,Max,162.5,P2,10.97,P2,-90.01,P77,0.03731,P2,305.3,P8,9.131,P2,204.7,P8,305.3,P8
10042,C94,6178,0.0%,Min,-193.4,P3,-13.97,P3,-204.7,P8,-0.5090,P3,81.68,P5,-11.54,P3,90.04,P73,82.01,P5
10042,C94,,6.3%,Max,162.5,P2,10.97,P2,-87.95,P77,0.03731,P2,231.2,P8,9.055,P2,201.9,P8,231.2,P8
10042,C94,,6.3%,Min,-193.4,P3,-13.97,P3,-201.9,P8,-0.5090,P3,47.51,P5,-10.37,P3,87.98,P73,47.94,P5
10042,C94,,12.5%,Max,162.5,P2,10.97,P2,-85.89,P77,0.03731,P2,158.2,P8,8.979,P2,199.2,P8,158.2,P8
10042,C94,,12.5%,Min,-193.4,P3,-13.97,P3,-199.2,P8,-0.5090,P3,14.08,P5,-9.201,P3,85.92,P73,15.13,P5
10042,C94,,18.8%,Max,162.5,P2,10.97,P2,-83.83,P77,0.03731,P2,105.7,P4,8.903,P2,196.4,P8,105.9,P4
10042,C94,,18.8%,Min,-193.4,P3,-13.97,P3,-196.4,P8,-0.5090,P3,-18.59,P5,-8.033,P3,83.86,P73,14.65,P3
10042,C94,,25.0%,Max,162.5,P2,10.97,P2,-81.77,P77,0.03731,P2,64.33,P4,8.827,P2,193.6,P8,64.58,P4
10042,C94,,25.0%,Min,-193.4,P3,-13.97,P3,-193.6,P8,-0.5090,P3,-50.51,P5,-6.864,P3,81.81,P73,0.9998,P70
10042,C94,,25.0%,Max,164.0,P2,6.425,P2,-49.62,P4,-0.5649,P2,51.72,P4,4.879,P2,124.4,P8,59.83,P5
10042,C94,,25.0%,Min,-192.5,P3,-7.985,P3,-124.4,P8,-1.595,P29,-59.71,P5,-6.052,P3,49.74,P4,0.2433,P36
10042,C94,,31.3%,Max,164.0,P2,6.425,P2,-47.56,P4,-0.5649,P2,23.05,P4,5.057,P2,121.6,P8,78.18,P5
10042,C94,,31.3%,Min,-192.5,P3,-7.985,P3,-121.6,P8,-1.595,P29,-78.10,P5,-5.661,P3,47.69,P4,5.788,P2
10042,C94,,37.5%,Max,164.0,P2,6.425,P2,-45.50,P4,-0.5649,P2,-4.880,P4,5.235,P2,118.8,P8,101.1,P6
10042,C94,,37.5%,Min,-192.5,P3,-7.985,P3,-118.8,P8,-1.595,P29,-101.1,P6,-5.271,P3,45.64,P4,5.769,P4
10042,C94,,43.8%,Max,164.0,P2,6.425,P2,-43.45,P4,-0.5649,P2,-32.06,P4,5.413,P2,116.1,P8,142.6,P6
10042,C94,,43.8%,Min,-192.5,P3,-7.985,P3,-116.1,P8,-1.595,P29,-142.6,P6,-4.881,P3,43.58,P4,32.23,P4
10042,C94,,50.0%,Max,164.0,P2,6.425,P2,-41.39,P4,-0.5649,P2,-58.48,P4,5.592,P2,113.3,P8,183.2,P6
10042,C94,,50.0%,Min,-192.5,P3,-7.985,P3,-113.3,P8,-1.595,P29,-183.2,P6,-4.490,P3,41.53,P4,58.59,P4
10042,C94,,50.0%,Max,152.9,P2,6.406,P2,8.926,P4,0.2498,P4,-63.90,P4,4.389,P2,17.92,P5,190.5,P6
10042,C94,,50.0%,Min,-178.3,P3,-7.487,P3,-17.33,P5,-0.4765,P5,-190.5,P6,-5.098,P3,2.687,P73,63.95,P4
10042,C94,,56.2%,Max,152.9,P2,6.406,P2,10.98,P4,0.2498,P4,-69.16,P4,4.746,P2,15.94,P5,191.1,P6
10042,C94,,56.2%,Min,-178.3,P3,-7.487,P3,-15.27,P5,-0.4765,P5,-191.1,P6,-5.062,P3,1.066,P72,69.22,P4
10042,C94,,62.5%,Max,152.9,P2,6.406,P2,13.04,P4,0.2498,P4,-73.67,P4,5.104,P2,13.98,P5,190.7,P6
10042,C94,,62.5%,Min,-178.3,P3,-7.487,P3,-13.21,P5,-0.4765,P5,-190.7,P6,-5.025,P3,0.1549,P8,73.73,P4
10042,C94,,68.7%,Max,152.9,P2,6.406,P2,15.10,P4,0.2498,P4,-77.44,P4,5.461,P2,15.50,P4,189.4,P33
10042,C94,,68.7%,Min,-178.3,P3,-7.487,P3,-11.15,P5,-0.4765,P5,-189.4,P33,-4.989,P3,0.2736,P66,77.50,P4
10042,C94,,75.0%,Max,152.9,P2,6.406,P2,17.16,P4,0.2498,P4,-80.45,P4,5.819,P2,17.51,P4,187.5,P33
10042,C94,,75.0%,Min,-178.3,P3,-7.487,P3,-9.096,P5,-0.4765,P5,-187.5,P33,-4.953,P3,1.367,P93,80.53,P4
10042,C94,,75.0%,Max,140.5,P2,10.67,P2,83.49,P6,-0.1104,P4,-78.78,P49,6.715,P2,83.51,P6,182.2,P33
10042,C94,,75.0%,Min,-162.5,P3,-12.04,P3,25.66,P5,-0.7934,P6,-182.2,P33,-7.567,P3,26.69,P5,78.78,P49
10042,C94,,81.2%,Max,140.5,P2,10.67,P2,86.27,P6,-0.1104,P4,-65.29,P4,7.532,P2,86.29,P6,151.9,P33
10042,C94,,81.2%,Min,-162.5,P3,-12.04,P3,27.72,P5,-0.7934,P6,-151.9,P33,-7.886,P3,28.68,P5,65.43,P4
10042,C94,,87.5%,Max,140.5,P2,10.67,P2,89.05,P6,-0.1104,P4,-50.64,P4,8.349,P2,89.07,P6,121.1,P8
10042,C94,,87.5%,Min,-162.5,P3,-12.04,P3,29.78,P5,-0.7934,P6,-121.1,P8,-8.204,P3,30.67,P5,50.88,P4
10042,C94,,93.7%,Max,140.5,P2,10.67,P2,91.83,P6,-0.1104,P4,-33.84,P2,9.167,P2,91.85,P6,89.37,P8
10042,C94,,93.7%,Min,-162.5,P3,-12.04,P3,31.84,P5,-0.7934,P6,-89.37,P8,-8.523,P3,32.67,P5,35.06,P2
10042,C94,6177,100.0%,Max,140.5,P2,10.67,P2,94.61,P6,-0.1104,P4,-15.92,P2,9.984,P2,94.63,P6,56.60,P8
10042,C94,6177,100.0%,Min,-162.5,P3,-12.04,P3,33.90,P5,-0.7934,P6,-56.60,P8,-8.841,P3,34.68,P5,18.80,P2
10043,C94,6175,0.0%,Max,181.9,P2,15.28,P2,-63.55,P91,0.5466,P4,37.21,P6,12.22,P2,144.9,P6,37.25,P6
10043,C94,6175,0.0%,Min,-187.6,P3,-16.44,P3,-144.8,P6,-0.05573,P5,3.039,P3,-13.21,P3,63.55,P91,5.220,P91
10043,C94,,6.2%,Max,181.9,P2,15.28,P2,-61.61,P91,0.5466,P4,1.754,P2,11.53,P2,142.2,P6,25.64,P3
10043,C94,,6.2%,Min,-187.6,P3,-16.44,P3,-142.2,P6,-0.05573,P5,-22.59,P3,-12.12,P3,61.61,P91,4.007,P73
10043,C94,,12.5%,Max,181.9,P2,15.28,P2,-59.66,P91,0.5466,P4,-23.67,P2,10.84,P2,139.6,P6,67.67,P8
10043,C94,,12.5%,Min,-187.6,P3,-16.44,P3,-139.6,P6,-0.05573,P5,-67.67,P8,-11.03,P3,59.66,P91,25.22,P80
10043,C94,,18.7%,Max,181.9,P2,15.28,P2,-57.72,P91,0.5466,P4,-46.17,P80,10.15,P2,137.0,P6,114.9,P8
10043,C94,,18.7%,Min,-187.6,P3,-16.44,P3,-137.0,P6,-0.05573,P5,-114.9,P8,-9.937,P3,57.72,P91,46.18,P80
10043,C94,,25.0%,Max,181.9,P2,15.28,P2,-55.77,P91,0.5466,P4,-66.45,P80,9.459,P2,134.3,P6,161.2,P8
10043,C94,,25.0%,Min,-187.6,P3,-16.44,P3,-134.3,P6,-0.05573,P5,-161.2,P8,-8.847,P3,55.77,P91,66.48,P80
10043,C94,,25.0%,Max,176.5,P2,10.42,P2,-21.87,P84,-0.2269,P4,-71.65,P80,7.754,P2,52.22,P6,172.5,P8
10043,C94,,25.0%,Min,-178.0,P3,-11.17,P3,-52.20,P6,-1.310,P6,-172.5,P8,-8.229,P3,21.94,P91,71.69,P80
10043,C94,,31.2%,Max,176.5,P2,10.42,P2,-19.92,P84,-0.2269,P4,-79.97,P80,7.611,P2,49.59,P6,189.4,P8
10043,C94,,31.2%,Min,-178.0,P3,-11.17,P3,-49.57,P6,-1.310,P6,-189.4,P8,-7.824,P3,19.99,P91,79.98,P80
10043,C94,,37.5%,Max,176.5,P2,10.42,P2,-17.98,P84,-0.2269,P4,-87.62,P80,7.467,P2,46.96,P6,205.4,P8
10043,C94,,37.5%,Min,-178.0,P3,-11.17,P3,-46.94,P6,-1.310,P6,-205.4,P8,-7.419,P3,18.04,P91,87.62,P80
10043,C94,,43.7%,Max,176.5,P2,10.42,P2,-16.03,P84,-0.2269,P4,-94.60,P80,7.323,P2,44.34,P6,220.5,P8
10043,C94,,43.7%,Min,-178.0,P3,-11.17,P3,-44.31,P6,-1.310,P6,-220.5,P8,-7.014,P3,16.10,P91,94.60,P80
10043,C94,,50.0%,Max,176.5,P2,10.42,P2,-14.09,P84,-0.2269,P4,-100.9,P80,7.179,P2,41.71,P6,234.7,P8
10043,C94,,50.0%,Min,-178.0,P3,-11.17,P3,-41.69,P6,-1.310,P6,-234.7,P8,-6.609,P3,14.15,P91,100.9,P80
10043,C94,,50.0%,Max,140.6,P2,13.04,P2,40.30,P31,-1.582,P4,-104.0,P73,9.062,P2,40.32,P31,241.0,P8
10043,C94,,50.0%,Min,-139.4,P3,-13.43,P3,15.88,P49,-4.171,P8,-241.0,P8,-9.251,P3,15.92,P73,104.0,P73
10043,C94,,56.3%,Max,140.6,P2,13.04,P2,42.93,P31,-1.582,P4,-98.19,P80,9.113,P2,42.94,P31,226.7,P8
10043,C94,,56.3%,Min,-139.4,P3,-13.43,P3,17.83,P49,-4.171,P8,-226.7,P8,-9.168,P3,17.87,P73,98.20,P80
10043,C94,,62.5%,Max,140.6,P2,13.04,P2,45.55,P31,-1.582,P4,-91.63,P80,9.163,P2,45.57,P31,211.4,P8
10043,C94,,62.5%,Min,-139.4,P3,-13.43,P3,19.78,P49,-4.171,P8,-211.4,P8,-9.084,P3,19.81,P73,91.63,P80
10043,C94,,68.8%,Max,140.6,P2,13.04,P2,48.18,P31,-1.582,P4,-84.39,P80,9.214,P2,48.20,P31,195.3,P8
10043,C94,,68.8%,Min,-139.4,P3,-13.43,P3,21.72,P49,-4.171,P8,-195.3,P8,-9.001,P3,21.76,P73,84.40,P80
10043,C94,,75.0%,Max,140.6,P2,13.04,P2,50.81,P31,-1.582,P4,-76.49,P80,9.265,P2,50.82,P31,178.3,P8
10043,C94,,75.0%,Min,-139.4,P3,-13.43,P3,23.67,P49,-4.171,P8,-178.3,P8,-8.918,P3,23.70,P73,76.51,P80
10043,C94,,75.0%,Max,75.90,P2,23.02,P2,119.4,P8,-0.1533,P4,-71.75,P80,13.06,P2,119.4,P8,166.4,P8
10043,C94,,75.0%,Min,-74.06,P3,-23.08,P3,49.55,P80,-0.8364,P6,-166.4,P8,-13.08,P3,49.67,P75,71.79,P80
10043,C94,,81.3%,Max,75.90,P2,23.02,P2,122.0,P8,-0.1533,P4,-54.35,P80,14.48,P2,122.0,P8,124.8,P8
10043,C94,,81.3%,Min,-74.06,P3,-23.08,P3,51.50,P80,-0.8364,P6,-124.8,P8,-14.48,P3,51.62,P75,54.36,P80
10043,C94,,87.5%,Max,75.90,P2,23.02,P2,124.6,P8,-0.1533,P4,-36.26,P79,15.89,P2,124.6,P8,82.31,P8
10043,C94,,87.5%,Min,-74.06,P3,-23.08,P3,53.44,P80,-0.8364,P6,-82.31,P8,-15.87,P3,53.56,P75,36.26,P79
10043,C94,,93.8%,Max,75.90,P2,23.02,P2,127.2,P8,-0.1533,P4,-17.04,P4,17.31,P2,127.2,P8,38.95,P25
10043,C94,,93.8%,Min,-74.06,P3,-23.08,P3,55.39,P80,-0.8364,P6,-38.94,P23,-17.27,P3,55.51,P75,17.52,P74
10043,C94,6124,100.0%,Max,75.90,P2,23.02,P2,129.9,P8,-0.1533,P4,5.349,P8,18.73,P2,129.9,P8,19.18,P2
10043,C94,6124,100.0%,Min,-74.06,P3,-23.08,P3,57.33,P80,-0.8364,P6,0.6174,P5,-18.67,P3,57.45,P75,1.923,P75
10044,C94,6179,0.0%,Max,130.3,P2,9.691,P2,-73.25,P4,0.2752,P4,222.3,P4,8.061,P2,191.4,P33,222.3,P4
10044,C94,6179,0.0%,Min,-149.7,P3,-11.30,P3,-191.4,P33,-1.064,P5,-1.090,P5,-9.154,P3,73.50,P4,6.228,P5
10044,C94,,6.3%,Max,130.3,P2,9.691,P2,-71.19,P4,0.2752,P4,177.8,P4,7.874,P2,188.6,P33,177.9,P4
10044,C94,,6.3%,Min,-149.7,P3,-11.30,P3,-188.6,P33,-1.064,P5,-27.63,P5,-8.383,P3,71.45,P4,22.76,P3
10044,C94,,12.5%,Max,130.3,P2,9.691,P2,-69.13,P4,0.2752,P4,134.1,P4,7.686,P2,185.8,P33,134.2,P4
10044,C94,,12.5%,Min,-149.7,P3,-11.30,P3,-185.8,P33,-1.064,P5,-53.42,P5,-7.611,P3,69.40,P4,11.58,P3
10044,C94,,18.8%,Max,130.3,P2,9.691,P2,-67.08,P4,0.2752,P4,91.08,P4,7.499,P2,183.1,P33,91.22,P4
10044,C94,,18.8%,Min,-149.7,P3,-11.30,P3,-183.1,P33,-1.064,P5,-78.45,P5,-6.839,P3,67.35,P4,0.4191,P48
10044,C94,,25.0%,Max,130.3,P2,9.691,P2,-65.02,P4,0.2752,P4,48.85,P4,7.312,P2,180.3,P33,102.8,P5
10044,C94,,25.0%,Min,-149.7,P3,-11.30,P3,-180.3,P33,-1.064,P5,-102.7,P5,-6.067,P3,65.30,P4,14.39,P2
10044,C94,,25.0%,Max,125.0,P2,5.000,P2,-15.84,P4,-1.255,P4,37.42,P4,3.812,P2,87.70,P33,105.8,P5
10044,C94,,25.0%,Min,-154.7,P3,-6.323,P3,-87.70,P33,-4.207,P6,-105.8,P5,-4.740,P3,16.15,P4,4.876,P2
10044,C94,,31.3%,Max,125.0,P2,5.000,P2,-13.78,P4,-1.255,P4,11.82,P4,3.979,P2,84.92,P33,111.9,P5
10044,C94,,31.3%,Min,-154.7,P3,-6.323,P3,-84.92,P33,-4.207,P6,-111.9,P5,-4.425,P3,14.14,P4,12.11,P4
10044,C94,,37.5%,Max,125.0,P2,5.000,P2,-11.72,P4,-1.255,P4,-13.02,P4,4.146,P2,82.14,P33,126.8,P6
10044,C94,,37.5%,Min,-154.7,P3,-6.323,P3,-82.14,P33,-4.207,P6,-126.8,P6,-4.109,P3,12.14,P4,13.32,P4
10044,C94,,43.8%,Max,125.0,P2,5.000,P2,-9.662,P4,-1.255,P4,-37.12,P4,4.313,P2,79.36,P33,155.4,P33
10044,C94,,43.8%,Min,-154.7,P3,-6.323,P3,-79.36,P33,-4.207,P6,-155.4,P33,-3.794,P3,10.17,P4,37.24,P4
10044,C94,,50.0%,Max,125.0,P2,5.000,P2,-7.604,P4,-1.255,P4,-60.46,P4,4.480,P2,76.59,P33,183.8,P33
10044,C94,,50.0%,Min,-154.7,P3,-6.323,P3,-76.58,P33,-4.207,P6,-183.8,P33,-3.479,P3,8.234,P4,60.55,P4
10044,C94,,50.0%,Max,107.6,P2,4.451,P2,36.12,P4,0.9549,P2,-65.61,P4,3.100,P2,36.21,P4,188.0,P33
10044,C94,,50.0%,Min,-143.4,P3,-5.107,P3,-13.33,P5,-0.7481,P60,-188.0,P33,-3.477,P3,1.677,P69,65.63,P4
10044,C94,,56.2%,Max,107.6,P2,4.451,P2,38.18,P4,0.9549,P2,-65.34,P4,3.318,P2,38.26,P4,180.2,P33
10044,C94,,56.2%,Min,-143.4,P3,-5.107,P3,-11.28,P5,-0.7481,P60,-180.2,P33,-3.456,P3,3.709,P69,65.36,P4
10044,C94,,62.5%,Max,107.6,P2,4.451,P2,40.24,P4,0.9549,P2,-64.31,P4,3.536,P2,40.31,P4,171.3,P33
10044,C94,,62.5%,Min,-143.4,P3,-5.107,P3,-9.218,P5,-0.7481,P60,-171.3,P33,-3.435,P3,5.184,P3,64.35,P4
10044,C94,,68.7%,Max,107.6,P2,4.451,P2,42.30,P4,0.9549,P2,-58.22,P60,3.754,P2,42.37,P4,161.5,P33
10044,C94,,68.7%,Min,-143.4,P3,-5.107,P3,-7.159,P5,-0.7481,P60,-161.5,P33,-3.414,P3,5.238,P3,58.22,P60
10044,C94,,75.0%,Max,107.6,P2,4.451,P2,44.36,P4,0.9549,P2,-51.04,P60,3.973,P2,44.42,P4,150.7,P33
10044,C94,,75.0%,Min,-143.4,P3,-5.107,P3,-5.101,P5,-0.7481,P60,-150.7,P33,-3.393,P3,5.971,P5,51.04,P60
10044,C94,,75.0%,Max,84.91,P2,5.991,P2,121.7,P6,-1.183,P4,-42.95,P60,3.733,P2,121.7,P6,135.1,P33
10044,C94,,75.0%,Min,-122.6,P3,-6.335,P3,37.57,P5,-3.806,P33,-135.1,P33,-3.653,P3,37.76,P5,42.96,P60
10044,C94,,81.2%,Max,84.91,P2,5.991,P2,124.5,P6,-1.183,P4,-18.08,P4,4.198,P2,124.5,P6,91.82,P21
10044,C94,,81.2%,Min,-122.6,P3,-6.335,P3,39.63,P5,-3.806,P33,-91.82,P21,-3.994,P3,39.80,P5,18.25,P4
10044,C94,,87.5%,Max,84.91,P2,5.991,P2,127.2,P6,-1.183,P4,13.15,P4,4.664,P2,127.2,P6,52.16,P21
10044,C94,,87.5%,Min,-122.6,P3,-6.335,P3,41.69,P5,-3.806,P33,-52.16,P21,-4.334,P3,41.85,P5,4.918,P48
10044,C94,,93.7%,Max,84.91,P2,5.991,P2,130.0,P6,-1.183,P4,45.13,P4,5.129,P2,130.0,P6,45.24,P4
10044,C94,,93.7%,Min,-122.6,P3,-6.335,P3,43.74,P5,-3.806,P33,-32.44,P5,-4.674,P3,43.90,P5,1.485,P32
10044,C94,6163,100.0%,Max,84.91,P2,5.991,P2,132.8,P6,-1.183,P4,77.87,P4,5.595,P2,132.8,P6,77.94,P4
10044,C94,6163,100.0%,Min,-122.6,P3,-6.335,P3,45.80,P5,-3.806,P33,-15.33,P5,-5.014,P3,45.96,P5,1.753,P69
10045,C94,6278,0.0%,Max,109.6,P25,62.99,P2,-211.7,P69,1.109,P4,704.1,P6,50.80,P2,480.5,P6,704.1,P6
10045,C94,6278,0.0%,Min,20.52,P57,-61.63,P3,-480.5,P6,-3.302,P5,287.2,P93,-49.91,P3,211.7,P69,287.3,P93
10045,C94,,4.1%,Max,109.6,P25,62.99,P2,-208.7,P69,1.109,P4,549.2,P6,45.61,P2,476.4,P6,549.2,P6
10045,C94,,4.1%,Min,20.52,P57,-61.63,P3,-476.4,P6,-3.302,P5,219.0,P93,-45.16,P3,208.7,P69,219.0,P93
10045,C94,,8.3%,Max,109.6,P25,62.99,P2,-205.6,P69,1.109,P4,395.6,P6,40.42,P2,472.3,P6,395.6,P6
10045,C94,,8.3%,Min,20.52,P57,-61.63,P3,-472.3,P6,-3.302,P5,151.8,P93,-40.41,P3,205.6,P69,151.8,P93
10045,C94,,12.4%,Max,109.6,P25,62.99,P2,-202.6,P69,1.109,P4,243.3,P6,35.23,P2,468.2,P6,243.3,P6
10045,C94,,12.4%,Min,20.52,P57,-61.63,P3,-468.2,P6,-3.302,P5,85.57,P93,-35.66,P3,202.6,P69,85.59,P93
10045,C94,,16.5%,Max,109.6,P25,62.99,P2,-199.5,P69,1.109,P4,92.37,P6,30.04,P2,464.1,P6,92.38,P6
10045,C94,,16.5%,Min,20.52,P57,-61.63,P3,-464.0,P6,-3.302,P5,20.33,P93,-30.91,P3,199.5,P69,20.34,P93
10045,C94,,16.5%,Max,120.0,P4,32.06,P2,-187.5,P69,-0.6429,P4,58.07,P6,18.16,P2,434.3,P6,58.08,P6
10045,C94,,16.5%,Min,-15.56,P5,-31.59,P3,-434.3,P6,-5.799,P8,5.538,P93,-17.67,P3,187.5,P69,5.584,P93
10045,C94,,20.7%,Max,120.0,P4,32.06,P2,-184.4,P69,-0.6429,P4,-29.42,P4,19.43,P2,430.2,P6,93.70,P8
10045,C94,,20.7%,Min,-15.56,P5,-31.59,P3,-430.2,P6,-5.799,P8,-93.70,P8,-19.10,P3,184.5,P69,32.94,P4
10045,C94,,24.8%,Max,120.0,P4,32.06,P2,-181.4,P69,-0.6429,P4,-98.25,P80,20.71,P2,426.1,P6,230.0,P8
10045,C94,,24.8%,Min,-15.56,P5,-31.59,P3,-426.1,P6,-5.799,P8,-230.0,P8,-20.53,P3,181.4,P69,98.25,P80
10045,C94,,29.0%,Max,120.0,P4,32.06,P2,-178.4,P69,-0.6429,P4,-160.5,P80,21.99,P2,422.0,P6,365.0,P8
10045,C94,,29.0%,Min,-15.56,P5,-31.59,P3,-421.9,P6,-5.799,P8,-365.0,P8,-21.96,P3,178.4,P69,160.5,P80
10045,C94,,33.1%,Max,120.0,P4,32.06,P2,-175.3,P69,-0.6429,P4,-220.8,P56,23.27,P2,417.8,P6,498.6,P8
10045,C94,,33.1%,Min,-15.56,P5,-31.59,P3,-417.8,P6,-5.799,P8,-498.6,P8,-23.39,P3,175.3,P69,220.8,P56
10045,C94,,33.1%,Max,136.5,P4,25.32,P2,-36.53,P69,1.842,P4,-228.4,P56,18.54,P2,93.05,P24,515.7,P8
10045,C94,,33.1%,Min,-34.77,P5,-23.08,P3,-93.05,P24,-0.4011,P5,-515.7,P8,-16.58,P3,36.55,P69,228.4,P56
10045,C94,,37.3%,Max,136.5,P4,25.32,P2,-33.45,P69,1.842,P4,-240.4,P56,17.33,P2,88.89,P24,545.2,P24
10045,C94,,37.3%,Min,-34.77,P5,-23.08,P3,-88.89,P24,-0.4011,P5,-545.2,P24,-16.11,P3,33.47,P69,240.4,P56
10045,C94,,41.5%,Max,136.5,P4,25.32,P2,-30.37,P69,1.842,P4,-251.3,P57,16.12,P2,84.74,P24,573.6,P24
10045,C94,,41.5%,Min,-34.77,P5,-23.08,P3,-84.73,P24,-0.4011,P5,-573.6,P24,-15.63,P3,30.39,P69,251.3,P57
10045,C94,,45.6%,Max,136.5,P4,25.32,P2,-27.29,P69,1.842,P4,-261.2,P57,14.91,P2,80.58,P24,600.6,P24
10045,C94,,45.6%,Min,-34.77,P5,-23.08,P3,-80.57,P24,-0.4011,P5,-600.6,P24,-15.15,P3,27.31,P69,261.2,P57
10045,C94,,49.8%,Max,136.5,P4,25.32,P2,-24.21,P69,1.842,P4,-270.1,P57,13.70,P2,76.42,P24,626.3,P24
10045,C94,,49.8%,Min,-34.77,P5,-23.08,P3,-76.41,P24,-0.4011,P5,-626.3,P24,-14.68,P3,24.24,P69,270.2,P57
10045,C94,,49.8%,Max,139.7,P4,24.30,P2,-5.483,P4,0.7941,P4,-271.2,P57,13.47,P2,31.23,P3,630.2,P24
10045,C94,,49.8%,Min,-34.93,P5,-21.84,P3,-31.21,P24,-1.781,P5,-630.2,P24,-11.90,P3,6.147,P69,271.3,P57
10045,C94,,54.0%,Max,139.7,P4,24.30,P2,-2.402,P4,0.7941,P4,-273.3,P57,14.30,P2,29.10,P3,639.7,P24
10045,C94,,54.0%,Min,-34.93,P5,-21.84,P3,-27.05,P24,-1.781,P5,-639.7,P24,-13.53,P3,3.125,P69,273.3,P57
10045,C94,,58.2%,Max,139.7,P4,24.30,P2,0.6788,P4,0.7941,P4,-274.3,P57,15.13,P2,27.17,P3,647.9,P24
10045,C94,,58.2%,Min,-34.93,P5,-21.84,P3,-22.89,P24,-1.781,P5,-647.9,P24,-15.16,P3,0.5955,P68,274.3,P57
10045,C94,,62.4%,Max,139.7,P4,24.30,P2,3.760,P4,0.7941,P4,-274.3,P57,15.95,P2,25.46,P3,654.7,P24
10045,C94,,62.4%,Min,-34.93,P5,-21.84,P3,-18.73,P24,-1.781,P5,-654.7,P24,-16.79,P3,1.643,P93,274.3,P57
10045,C94,,66.5%,Max,139.7,P4,24.30,P2,6.841,P4,0.7941,P4,-273.3,P57,16.78,P2,24.47,P2,660.1,P24
10045,C94,,66.5%,Min,-34.93,P5,-21.84,P3,-14.57,P24,-1.781,P5,-660.1,P24,-18.42,P3,1.108,P66,273.3,P57
10045,C94,,66.5%,Max,153.5,P2,21.24,P2,267.3,P33,4.374,P32,-269.1,P57,15.23,P2,267.3,P33,652.9,P24
10045,C94,,66.5%,Min,-55.21,P57,-19.76,P3,113.2,P60,1.576,P3,-652.9,P24,-14.02,P3,113.4,P60,269.2,P57
10045,C94,,70.7%,Max,153.5,P2,21.24,P2,271.5,P33,4.374,P32,-227.1,P57,14.41,P2,271.5,P33,567.0,P24
10045,C94,,70.7%,Min,-55.21,P57,-19.76,P3,116.3,P60,1.576,P3,-567.0,P24,-13.69,P3,116.5,P60,227.1,P57
10045,C94,,74.9%,Max,153.5,P2,21.24,P2,275.6,P33,4.374,P32,-184.0,P57,13.60,P2,275.6,P33,479.7,P24
10045,C94,,74.9%,Min,-55.21,P57,-19.76,P3,119.4,P60,1.576,P3,-479.7,P24,-13.35,P3,119.6,P60,184.0,P57
10045,C94,,79.1%,Max,153.5,P2,21.24,P2,279.8,P33,4.374,P32,-139.9,P57,12.78,P2,279.8,P33,391.0,P24
10045,C94,,79.1%,Min,-55.21,P57,-19.76,P3,122.5,P60,1.576,P3,-391.0,P24,-13.02,P3,122.6,P60,139.9,P57
10045,C94,,83.3%,Max,153.5,P2,21.24,P2,283.9,P33,4.374,P32,-94.75,P57,11.97,P2,284.0,P33,301.0,P24
10045,C94,,83.3%,Min,-55.21,P57,-19.76,P3,125.5,P60,1.576,P3,-301.0,P24,-12.69,P3,125.7,P60,94.81,P57
10045,C94,,83.3%,Max,175.8,P2,23.20,P2,324.5,P33,3.431,P33,-82.40,P57,12.12,P2,324.5,P33,276.1,P24
10045,C94,,83.3%,Min,-80.63,P57,-24.03,P3,142.9,P60,1.134,P3,-276.1,P24,-12.04,P3,143.2,P60,82.52,P57
10045,C94,,87.5%,Max,175.8,P2,23.20,P2,328.7,P33,3.431,P33,-31.33,P57,13.97,P2,328.7,P33,171.1,P24
10045,C94,,87.5%,Min,-80.63,P57,-24.03,P3,146.0,P60,1.134,P3,-171.1,P24,-13.61,P3,146.3,P60,31.38,P57
10045,C94,,91.6%,Max,175.8,P2,23.20,P2,332.9,P33,3.431,P33,20.75,P57,15.81,P2,332.9,P33,69.28,P12
10045,C94,,91.6%,Min,-80.63,P57,-24.03,P3,149.1,P60,1.134,P3,-69.26,P12,-15.18,P3,149.4,P60,1.954,P93
10045,C94,,95.8%,Max,175.8,P2,23.20,P2,337.0,P33,3.431,P33,95.04,P21,17.65,P2,337.0,P33,95.06,P21
10045,C94,,95.8%,Min,-80.63,P57,-24.03,P3,152.1,P60,1.134,P3,-4.934,P5,-16.75,P3,152.5,P60,5.050,P60
10045,C94,6163,100.0%,Max,175.8,P2,23.20,P2,341.2,P33,3.431,P33,197.5,P21,19.50,P2,341.2,P33,197.5,P21
10045,C94,6163,100.0%,Min,-80.63,P57,-24.03,P3,155.2,P60,1.134,P3,51.86,P60,-18.33,P3,155.5,P60,52.48,P60
10052,C94,6153,0.0%,Max,164.4,P4,55.41,P4,-174.4,P81,1.960,P2,890.2,P8,37.18,P4,370.3,P8,890.3,P8
10052,C94,6153,0.0%,Min,-142.6,P5,-72.41,P5,-369.7,P8,-1.970,P3,407.5,P81,-49.40,P5,174.5,P76,407.6,P81
10052,C94,,12.5%,Max,164.4,P4,55.41,P4,-171.9,P81,1.960,P2,790.9,P8,35.07,P4,366.9,P8,790.9,P8
10052,C94,,12.5%,Min,-142.6,P5,-72.41,P5,-366.3,P8,-1.970,P3,360.8,P81,-42.71,P5,171.9,P76,360.8,P81
10052,C94,,25.0%,Max,164.4,P4,55.41,P4,-169.3,P81,1.960,P2,692.5,P8,32.97,P4,363.5,P8,692.5,P8
10052,C94,,25.0%,Min,-142.6,P5,-72.41,P5,-362.8,P8,-1.970,P3,314.7,P81,-36.02,P5,169.4,P76,314.7,P81
10052,C94,,37.5%,Max,164.4,P4,55.41,P4,-166.8,P81,1.960,P2,595.1,P8,30.86,P4,360.1,P8,595.1,P8
10052,C94,,37.5%,Min,-142.6,P5,-72.41,P5,-359.4,P8,-1.970,P3,269.4,P81,-29.32,P5,166.9,P76,269.4,P81
10052,C94,,50.0%,Max,164.4,P4,55.41,P4,-164.3,P81,1.960,P2,498.6,P8,28.75,P4,356.6,P8,498.6,P8
10052,C94,,50.0%,Min,-142.6,P5,-72.41,P5,-356.0,P8,-1.970,P3,224.7,P81,-22.63,P5,164.3,P76,224.8,P81
10052,C94,,50.0%,Max,139.7,P4,34.45,P4,-175.1,P81,2.309,P4,482.6,P8,17.70,P4,380.6,P8,482.7,P8
10052,C94,,50.0%,Min,-102.3,P5,-49.28,P5,-380.3,P8,-2.565,P5,216.7,P81,-25.58,P5,175.2,P81,216.8,P81
10052,C94,,62.5%,Max,139.7,P4,34.45,P4,-172.6,P81,2.309,P4,380.5,P8,20.18,P4,377.2,P8,380.5,P8
10052,C94,,62.5%,Min,-102.3,P5,-49.28,P5,-376.8,P8,-2.565,P5,169.8,P81,-24.06,P5,172.7,P81,169.8,P81
10052,C94,,75.0%,Max,139.7,P4,34.45,P4,-170.0,P81,2.309,P4,279.3,P8,22.66,P4,373.8,P8,279.3,P8
10052,C94,,75.0%,Min,-102.3,P5,-49.28,P5,-373.4,P8,-2.565,P5,123.6,P81,-22.54,P5,170.1,P81,123.6,P81
10052,C94,,87.5%,Max,139.7,P4,34.45,P4,-167.5,P81,2.309,P4,179.0,P8,25.15,P4,370.3,P8,179.0,P8
10052,C94,,87.5%,Min,-102.3,P5,-49.28,P5,-370.0,P8,-2.565,P5,77.40,P3,-21.02,P5,167.6,P81,78.01,P3
10052,C94,7166,100.0%,Max,139.7,P4,34.45,P4,-165.0,P81,2.309,P4,79.63,P8,27.63,P4,366.9,P8,80.13,P8
10052,C94,7166,100.0%,Min,-102.3,P5,-49.28,P5,-366.5,P8,-2.565,P5,30.19,P3,-19.50,P5,165.0,P81,31.22,P3
10053,C94,7122,0.0%,Max,168.2,P4,17.61,P4,305.4,P8,-0.7687,P4,51.74,P8,14.44,P4,305.4,P8,52.08,P24
10053,C94,7122,0.0%,Min,-105.7,P5,-8.020,P5,118.4,P5,-6.248,P31,20.21,P57,-6.833,P5,118.7,P5,20.64,P57
10053,C94,,12.5%,Max,168.2,P4,17.61,P4,309.3,P8,-0.7687,P4,145.9,P8,11.62,P4,309.3,P8,146.0,P8
10053,C94,,12.5%,Min,-105.7,P5,-8.020,P5,121.3,P5,-6.248,P31,58.51,P81,-6.953,P5,121.5,P5,58.57,P81
10053,C94,,25.0%,Max,168.2,P4,17.61,P4,313.2,P8,-0.7687,P4,241.3,P8,8.801,P4,313.2,P8,241.3,P8
10053,C94,,25.0%,Min,-105.7,P5,-8.020,P5,124.2,P5,-6.248,P31,96.53,P5,-7.073,P5,124.4,P5,96.79,P5
10053,C94,,37.5%,Max,168.2,P4,17.61,P4,317.0,P8,-0.7687,P4,337.8,P8,5.981,P4,317.1,P8,337.8,P8
10053,C94,,37.5%,Min,-105.7,P5,-8.020,P5,127.1,P5,-6.248,P31,135.1,P5,-7.193,P5,127.3,P5,135.3,P5
10053,C94,,50.0%,Max,168.2,P4,17.61,P4,320.9,P8,-0.7687,P4,435.6,P8,3.161,P4,321.0,P8,435.6,P8
10053,C94,,50.0%,Min,-105.7,P5,-8.020,P5,129.9,P5,-6.248,P31,174.5,P5,-7.313,P5,130.2,P5,174.7,P5
10053,C94,,50.0%,Max,208.4,P4,41.95,P4,345.6,P8,-3.615,P4,461.8,P8,20.35,P4,346.0,P8,461.9,P8
10053,C94,,50.0%,Min,-139.8,P5,-21.90,P5,144.6,P5,-14.32,P33,185.0,P5,-9.840,P5,146.3,P5,185.3,P5
10053,C94,,62.5%,Max,208.4,P4,41.95,P4,349.5,P8,-3.615,P4,568.3,P8,19.53,P4,349.8,P8,568.3,P8
10053,C94,,62.5%,Min,-139.8,P5,-21.90,P5,147.5,P5,-14.32,P33,229.8,P5,-15.17,P5,149.1,P5,230.3,P5
10053,C94,,75.0%,Max,208.4,P4,41.95,P4,353.4,P8,-3.615,P4,676.0,P8,18.72,P4,353.7,P8,676.0,P8
10053,C94,,75.0%,Min,-139.8,P5,-21.90,P5,150.4,P5,-14.32,P33,275.5,P5,-20.50,P5,152.0,P5,276.3,P5
10053,C94,,87.5%,Max,208.4,P4,41.95,P4,357.3,P8,-3.615,P4,784.9,P8,17.90,P4,357.6,P8,784.9,P8
10053,C94,,87.5%,Min,-139.8,P5,-21.90,P5,153.3,P5,-14.32,P33,322.1,P5,-25.82,P5,154.8,P5,323.1,P5
10053,C94,6157,100.0%,Max,208.4,P4,41.95,P4,361.2,P8,-3.615,P4,895.0,P8,17.08,P4,361.5,P8,895.1,P8
10053,C94,6157,100.0%,Min,-139.8,P5,-21.90,P5,156.1,P5,-14.32,P33,369.5,P5,-31.15,P5,157.7,P5,370.8,P5
10054,C94,6195,0.0%,Max,94.73,P2,9.268,P2,-9.448,P79,4.260,P8,336.7,P9,6.864,P2,233.0,P9,336.7,P9
10054,C94,6195,0.0%,Min,-163.4,P3,-5.879,P3,-233.0,P9,1.355,P79,-46.30,P79,-4.312,P3,10.74,P79,2.649,P56
10054,C94,,5.0%,Max,94.73,P2,9.268,P2,-7.499,P79,4.260,P8,256.8,P9,6.102,P2,230.3,P9,256.8,P9
10054,C94,,5.0%,Min,-163.4,P3,-5.879,P3,-230.3,P9,1.355,P79,-49.23,P79,-4.720,P3,9.076,P79,2.780,P77
10054,C94,,10.0%,Max,94.73,P2,9.268,P2,-5.550,P79,4.260,P8,177.8,P9,5.341,P2,227.7,P9,177.8,P9
10054,C94,,10.0%,Min,-163.4,P3,-5.879,P3,-227.7,P9,1.355,P79,-51.48,P79,-5.128,P3,7.545,P79,0.6804,P47
10054,C94,,15.0%,Max,94.73,P2,9.268,P2,-3.601,P79,4.260,P8,99.64,P9,4.580,P2,225.1,P9,99.64,P9
10054,C94,,15.0%,Min,-163.4,P3,-5.879,P3,-225.1,P9,1.355,P79,-53.06,P79,-5.537,P3,6.252,P79,0.1102,P44
10054,C94,,20.0%,Max,94.73,P2,9.268,P2,-1.652,P79,4.260,P8,37.17,P2,3.819,P2,222.4,P9,55.31,P55
10054,C94,,20.0%,Min,-163.4,P3,-5.879,P3,-222.4,P9,1.355,P79,-55.26,P55,-5.945,P3,5.372,P79,1.764,P68
10054,C94,,20.0%,Max,92.71,P2,4.968,P2,30.27,P79,-4.122,P79,17.25,P85,3.400,P2,161.3,P9,59.37,P19
10054,C94,,20.0%,Min,-161.5,P3,-3.272,P3,-161.3,P9,-12.34,P8,-59.36,P19,-2.250,P3,3.723,P73,3.125,P37
10054,C94,,25.0%,Max,92.71,P2,4.968,P2,32.22,P79,-4.122,P79,4.986,P2,3.128,P2,158.7,P9,84.08,P31
10054,C94,,25.0%,Min,-161.5,P3,-3.272,P3,-158.7,P9,-12.34,P8,-84.08,P31,-2.563,P3,3.104,P51,2.619,P4
10054,C94,,30.0%,Max,92.71,P2,4.968,P2,34.17,P79,-4.122,P79,-5.112,P2,2.856,P2,156.1,P9,123.7,P8
10054,C94,,30.0%,Min,-161.5,P3,-3.272,P3,-156.1,P9,-12.34,P8,-123.7,P8,-2.876,P3,2.478,P51,5.855,P2
10054,C94,,35.0%,Max,92.71,P2,4.968,P2,36.12,P79,-4.122,P79,-14.54,P2,2.584,P2,153.5,P9,173.4,P8
10054,C94,,35.0%,Min,-161.5,P3,-3.272,P3,-153.5,P9,-12.34,P8,-173.4,P8,-3.189,P3,2.960,P43,14.77,P2
10054,C94,,40.0%,Max,92.71,P2,4.968,P2,38.07,P79,-4.122,P79,-4.198,P79,2.311,P2,150.8,P9,223.0,P9
10054,C94,,40.0%,Min,-161.5,P3,-3.272,P3,-150.8,P9,-12.34,P8,-223.0,P9,-3.502,P3,1.039,P43,4.529,P79
10054,C94,,40.0%,Max,96.44,P2,3.725,P2,78.75,P79,2.855,P8,6.100,P79,2.598,P2,78.77,P79,234.8,P9
10054,C94,,40.0%,Min,-168.6,P3,-2.575,P3,-67.02,P3,0.2010,P79,-234.8,P9,-1.793,P3,2.195,P17,2.756,P81
10054,C94,,45.0%,Max,96.44,P2,3.725,P2,80.70,P79,2.855,P8,33.61,P79,2.408,P2,80.72,P79,252.9,P9
10054,C94,,45.0%,Min,-168.6,P3,-2.575,P3,-65.08,P3,0.2010,P79,-252.9,P9,-2.000,P3,1.996,P41,0.2504,P57
10054,C94,,50.0%,Max,96.44,P2,3.725,P2,82.65,P79,2.855,P8,61.79,P79,2.219,P2,82.66,P79,270.0,P9
10054,C94,,50.0%,Min,-168.6,P3,-2.575,P3,-63.13,P3,0.2010,P79,-270.0,P9,-2.207,P3,2.005,P41,1.149,P50
10054,C94,,55.0%,Max,96.44,P2,3.725,P2,84.60,P79,2.855,P8,90.65,P79,2.029,P2,84.61,P79,286.3,P9
10054,C94,,55.0%,Min,-168.6,P3,-2.575,P3,-61.18,P3,0.2010,P79,-286.3,P9,-2.414,P3,3.149,P13,2.304,P53
10054,C94,,60.0%,Max,96.44,P2,3.725,P2,86.54,P79,2.855,P8,120.2,P79,1.839,P2,86.56,P79,301.6,P9
10054,C94,,60.0%,Min,-168.6,P3,-2.575,P3,-59.23,P3,0.2010,P79,-301.6,P9,-2.621,P3,1.941,P37,3.791,P49
10054,C94,,60.0%,Max,125.8,P55,3.242,P2,179.7,P7,11.97,P8,128.0,P79,1.957,P2,179.7,P7,316.8,P9
10054,C94,,60.0%,Min,-182.6,P3,-2.085,P3,-10.59,P85,2.892,P79,-316.8,P9,-1.474,P3,1.613,P82,3.211,P49
10054,C94,,65.0%,Max,125.8,P55,3.242,P2,182.3,P7,11.97,P8,175.9,P79,1.853,P2,182.3,P7,295.0,P9
10054,C94,,65.0%,Min,-182.6,P3,-2.085,P3,-8.637,P85,2.892,P79,-295.0,P9,-1.770,P3,0.3992,P83,0.4350,P44
10054,C94,,70.0%,Max,125.8,P55,3.242,P2,184.9,P7,11.97,P8,224.4,P79,1.750,P2,184.9,P7,274.6,P3
10054,C94,,70.0%,Min,-182.6,P3,-2.085,P3,-6.688,P85,2.892,P79,-274.6,P3,-2.066,P3,2.086,P3,0.1138,P39
10054,C94,,75.0%,Max,125.8,P55,3.242,P2,187.6,P7,11.97,P8,273.7,P79,1.647,P2,187.6,P7,274.1,P3
10054,C94,,75.0%,Min,-182.6,P3,-2.085,P3,-4.739,P85,2.892,P79,-274.1,P3,-2.361,P3,1.247,P88,0.4883,P67
10054,C94,,80.0%,Max,125.8,P55,3.242,P2,190.2,P7,11.97,P8,323.6,P79,1.543,P2,190.2,P7,323.6,P79
10054,C94,,80.0%,Min,-182.6,P3,-2.085,P3,-2.790,P85,2.892,P79,-272.9,P3,-2.657,P3,1.136,P89,1.513,P40
10054,C94,,80.0%,Max,214.7,P55,3.140,P2,203.5,P7,-1.120,P84,341.0,P79,1.071,P2,203.5,P7,341.0,P79
10054,C94,,80.0%,Min,-252.7,P3,-2.423,P3,0.1169,P85,-9.353,P7,-275.8,P3,-1.827,P3,0.3892,P85,1.665,P24
10054,C94,,85.0%,Max,214.7,P55,3.140,P2,206.1,P7,-1.120,P84,394.1,P79,1.291,P2,206.1,P7,394.1,P79
10054,C94,,85.0%,Min,-252.7,P3,-2.423,P3,2.066,P85,-9.353,P7,-272.4,P3,-2.295,P3,2.099,P85,1.819,P36
10054,C94,,90.0%,Max,214.7,P55,3.140,P2,208.8,P7,-1.120,P84,447.9,P79,1.511,P2,208.8,P7,447.9,P79
10054,C94,,90.0%,Min,-252.7,P3,-2.423,P3,4.015,P85,-9.353,P7,-268.4,P3,-2.762,P3,4.032,P85,5.386,P69
10054,C94,,95.0%,Max,214.7,P55,3.140,P2,211.4,P7,-1.120,P84,502.4,P79,1.730,P2,211.4,P7,502.4,P79
10054,C94,,95.0%,Min,-252.7,P3,-2.423,P3,5.965,P85,-9.353,P7,-263.7,P3,-3.229,P3,5.976,P85,7.722,P8
10054,C94,7562,100.0%,Max,214.7,P55,3.140,P2,214.0,P7,-1.120,P84,557.5,P79,1.950,P2,214.0,P7,557.5,P79
10054,C94,7562,100.0%,Min,-252.7,P3,-2.423,P3,7.914,P85,-9.353,P7,-258.3,P3,-3.696,P3,7.922,P85,18.21,P63
10055,C94,6196,0.0%,Max,53.57,P2,2.626,P2,-47.26,P90,10.97,P24,-9.055,P60,2.712,P2,121.8,P6,21.48,P31
10055,C94,6196,0.0%,Min,-71.54,P3,-2.690,P3,-121.8,P6,3.259,P67,-21.46,P31,-2.640,P3,47.26,P90,9.147,P36
10055,C94,,6.3%,Max,53.57,P2,2.626,P2,-44.90,P90,10.97,P24,-29.13,P90,2.500,P2,118.6,P6,71.32,P6
10055,C94,,6.3%,Min,-71.54,P3,-2.690,P3,-118.6,P6,3.259,P67,-71.32,P6,-2.402,P3,44.90,P90,29.13,P90
10055,C94,,12.5%,Max,53.57,P2,2.626,P2,-42.53,P90,10.97,P24,-47.42,P90,2.289,P2,115.4,P6,120.3,P6
10055,C94,,12.5%,Min,-71.54,P3,-2.690,P3,-115.4,P6,3.259,P67,-120.3,P6,-2.163,P3,42.53,P90,47.42,P90
10055,C94,,18.8%,Max,53.57,P2,2.626,P2,-40.17,P90,10.97,P24,-64.73,P90,2.077,P2,112.2,P6,167.9,P6
10055,C94,,18.8%,Min,-71.54,P3,-2.690,P3,-112.2,P6,3.259,P67,-167.9,P6,-1.925,P3,40.17,P90,64.73,P90
10055,C94,,25.0%,Max,53.57,P2,2.626,P2,-37.80,P90,10.97,P24,-81.05,P90,1.866,P2,109.0,P6,214.2,P6
10055,C94,,25.0%,Min,-71.54,P3,-2.690,P3,-109.0,P6,3.259,P67,-214.2,P6,-1.686,P3,37.81,P90,81.05,P90
10055,C94,,25.0%,Max,66.86,P2,3.131,P2,1.099,P2,0.7813,P2,-91.71,P90,3.033,P2,25.90,P3,245.7,P6
10055,C94,,25.0%,Min,-91.28,P3,-2.412,P3,-25.78,P3,-0.7321,P3,-245.7,P6,-2.213,P3,0.7381,P66,91.71,P90
10055,C94,,31.2%,Max,66.86,P2,3.131,P2,3.463,P2,0.7813,P2,-91.73,P90,2.732,P2,23.54,P3,254.8,P6
10055,C94,,31.2%,Min,-91.28,P3,-2.412,P3,-23.42,P3,-0.7321,P3,-254.8,P6,-2.213,P3,0.2417,P69,91.73,P90
10055,C94,,37.5%,Max,66.86,P2,3.131,P2,5.827,P2,0.7813,P2,-90.61,P67,2.431,P2,21.19,P3,262.5,P6
10055,C94,,37.5%,Min,-91.28,P3,-2.412,P3,-21.05,P3,-0.7321,P3,-262.5,P6,-2.213,P3,1.223,P44,90.61,P67
10055,C94,,43.7%,Max,66.86,P2,3.131,P2,8.191,P2,0.7813,P2,-88.21,P67,2.130,P2,18.85,P3,268.9,P6
10055,C94,,43.7%,Min,-91.28,P3,-2.412,P3,-18.69,P3,-0.7321,P3,-268.9,P6,-2.213,P3,0.4835,P34,88.21,P67
10055,C94,,50.0%,Max,66.86,P2,3.131,P2,10.55,P2,0.7813,P2,-84.82,P67,1.830,P2,16.50,P3,273.9,P6
10055,C94,,50.0%,Min,-91.28,P3,-2.412,P3,-16.33,P3,-0.7321,P3,-273.9,P6,-2.213,P3,0.2162,P51,84.82,P67
10055,C94,,50.0%,Max,89.01,P2,5.770,P2,86.49,P31,-1.973,P90,-75.24,P67,4.859,P2,86.49,P31,261.3,P6
10055,C94,,50.0%,Min,-118.5,P3,-3.338,P3,19.11,P72,-6.710,P6,-261.3,P6,-2.669,P3,19.16,P72,75.25,P67
10055,C94,,56.2%,Max,89.01,P2,5.770,P2,89.68,P31,-1.973,P90,-56.76,P67,4.375,P2,89.68,P31,228.4,P6
10055,C94,,56.2%,Min,-118.5,P3,-3.338,P3,21.47,P72,-6.710,P6,-228.4,P6,-3.203,P3,21.52,P72,56.76,P67
10055,C94,,62.5%,Max,89.01,P2,5.770,P2,92.87,P31,-1.973,P90,-37.29,P67,3.891,P2,92.87,P31,194.2,P6
10055,C94,,62.5%,Min,-118.5,P3,-3.338,P3,23.84,P72,-6.710,P6,-194.2,P6,-3.736,P3,23.88,P72,37.29,P67
10055,C94,,68.7%,Max,89.01,P2,5.770,P2,96.06,P31,-1.973,P90,-16.10,P2,3.406,P2,96.07,P31,159.3,P7
10055,C94,,68.7%,Min,-118.5,P3,-3.338,P3,26.20,P72,-6.710,P6,-159.3,P7,-4.270,P3,26.24,P72,16.45,P2
10055,C94,,75.0%,Max,89.01,P2,5.770,P2,99.26,P31,-1.973,P90,7.879,P2,2.922,P2,99.26,P31,127.6,P7
10055,C94,,75.0%,Min,-118.5,P3,-3.338,P3,28.56,P72,-6.710,P6,-127.6,P7,-4.804,P3,28.60,P72,2.206,P90
10055,C94,,75.0%,Max,135.3,P2,10.03,P2,235.4,P31,-1.004,P83,28.26,P2,6.814,P2,235.4,P31,112.6,P3
10055,C94,,75.0%,Min,-169.3,P3,-4.174,P3,79.31,P48,-5.241,P6,-112.5,P3,-2.683,P3,79.36,P48,1.330,P42
10055,C94,,81.2%,Max,135.3,P2,10.03,P2,238.6,P31,-1.004,P83,81.72,P2,6.213,P2,238.6,P31,81.95,P2
10055,C94,,81.2%,Min,-169.3,P3,-4.174,P3,81.68,P48,-5.241,P6,-69.94,P3,-4.535,P3,81.72,P48,4.019,P6
10055,C94,,87.5%,Max,135.3,P2,10.03,P2,241.8,P31,-1.004,P83,159.2,P19,5.612,P2,241.8,P31,159.2,P19
10055,C94,,87.5%,Min,-169.3,P3,-4.174,P3,84.04,P48,-5.241,P6,-26.37,P3,-6.387,P3,84.08,P48,4.172,P36
10055,C94,,93.7%,Max,135.3,P2,10.03,P2,245.0,P31,-1.004,P83,256.6,P31,5.011,P2,245.0,P31,256.7,P31
10055,C94,,93.7%,Min,-169.3,P3,-4.174,P3,86.41,P48,-5.241,P6,12.94,P72,-8.238,P3,86.45,P48,13.01,P72
10055,C94,4851,100.0%,Max,135.3,P2,10.03,P2,248.2,P31,-1.004,P83,359.8,P31,4.410,P2,248.2,P31,359.8,P31
10055,C94,4851,100.0%,Min,-169.3,P3,-4.174,P3,88.77,P48,-5.241,P6,49.74,P72,-10.09,P3,88.81,P48,49.78,P72
10056,C94,6197,0.0%,Max,142.8,P2,2.563,P4,-59.27,P83,11.64,P24,308.7,P8,1.828,P2,171.7,P6,308.7,P8
10056,C94,6197,0.0%,Min,-195.8,P3,-2.226,P5,-171.7,P6,4.470,P67,131.1,P55,-1.664,P3,59.28,P83,131.1,P55
10056,C94,,8.8%,Max,142.8,P2,2.563,P4,-57.42,P83,11.64,P24,259.0,P8,1.733,P2,169.2,P6,259.0,P8
10056,C94,,8.8%,Min,-195.8,P3,-2.226,P5,-169.2,P6,4.470,P67,100.6,P79,-1.680,P3,57.42,P83,100.6,P79
10056,C94,,17.7%,Max,142.8,P2,2.563,P4,-55.56,P83,11.64,P24,210.1,P8,1.639,P2,166.7,P6,210.1,P8
10056,C94,,17.7%,Min,-195.8,P3,-2.226,P5,-166.7,P6,4.470,P67,70.59,P79,-1.696,P3,55.56,P83,70.59,P79
10056,C94,,26.5%,Max,142.8,P2,2.563,P4,-53.70,P83,11.64,P24,162.0,P8,1.596,P4,164.2,P6,162.0,P8
10056,C94,,26.5%,Min,-195.8,P3,-2.226,P5,-164.2,P6,4.470,P67,41.15,P79,-1.764,P5,53.71,P83,41.16,P79
10056,C94,,35.3%,Max,142.8,P2,2.563,P4,-51.85,P83,11.64,P24,116.1,P9,1.560,P4,161.7,P6,116.1,P9
10056,C94,,35.3%,Min,-195.8,P3,-2.226,P5,-161.7,P6,4.470,P67,12.32,P79,-1.839,P5,51.85,P83,12.37,P79
10056,C94,,35.3%,Max,144.3,P2,3.307,P4,-8.934,P2,-1.131,P4,128.5,P9,1.989,P4,65.33,P7,128.5,P9
10056,C94,,35.3%,Min,-204.1,P3,-2.397,P5,-65.31,P7,-3.163,P31,15.41,P79,-1.438,P5,9.468,P2,15.43,P79
10056,C94,,44.1%,Max,144.3,P2,3.307,P4,-7.077,P2,-1.131,P4,117.0,P9,1.933,P4,62.82,P7,117.0,P9
10056,C94,,44.1%,Min,-204.1,P3,-2.397,P5,-62.81,P7,-3.163,P31,0.4423,P79,-1.682,P5,7.739,P2,0.5177,P79
10056,C94,,53.0%,Max,144.3,P2,3.307,P4,-5.220,P2,-1.131,P4,106.3,P9,1.877,P4,60.31,P7,106.3,P9
10056,C94,,53.0%,Min,-204.1,P3,-2.397,P5,-60.30,P7,-3.163,P31,-13.91,P79,-1.925,P5,6.088,P2,1.953,P5
10056,C94,,61.8%,Max,144.3,P2,3.307,P4,-3.363,P2,-1.131,P4,96.39,P9,1.821,P4,57.81,P7,96.39,P9
10056,C94,,61.8%,Min,-204.1,P3,-2.397,P5,-57.79,P7,-3.163,P31,-27.66,P79,-2.169,P5,4.596,P2,0.5955,P49
10056,C94,,70.6%,Max,144.3,P2,3.307,P4,-1.506,P2,-1.131,P4,87.34,P9,1.766,P4,55.30,P7,87.34,P9
10056,C94,,70.6%,Min,-204.1,P3,-2.397,P5,-55.29,P7,-3.163,P31,-40.79,P79,-2.412,P5,3.476,P2,0.7447,P42
10056,C94,,70.6%,Max,138.5,P2,8.098,P2,148.0,P8,-0.5984,P2,104.0,P9,3.960,P2,148.0,P8,104.1,P9
10056,C94,,70.6%,Min,-200.9,P3,-9.344,P3,43.00,P55,-4.798,P24,-35.65,P79,-4.748,P3,43.50,P55,2.374,P49
10056,C94,,78.0%,Max,138.5,P2,8.098,P2,150.1,P8,-0.5984,P2,142.0,P9,4.345,P2,150.1,P8,142.0,P9
10056,C94,,78.0%,Min,-200.9,P3,-9.344,P3,44.54,P55,-4.798,P24,-23.32,P79,-4.793,P3,45.03,P55,0.9975,P57
10056,C94,,85.3%,Max,138.5,P2,8.098,P2,152.1,P8,-0.5984,P2,180.6,P9,4.731,P2,152.2,P8,180.6,P9
10056,C94,,85.3%,Min,-200.9,P3,-9.344,P3,46.09,P55,-4.798,P24,-10.58,P79,-4.837,P3,46.55,P55,0.3636,P80
10056,C94,,92.7%,Max,138.5,P2,8.098,P2,154.2,P8,-0.5984,P2,219.7,P9,5.117,P2,154.3,P8,219.7,P9
10056,C94,,92.7%,Min,-200.9,P3,-9.344,P3,47.63,P55,-4.798,P24,2.595,P79,-4.882,P3,48.08,P55,3.447,P79
10056,C94,6195,100.0%,Max,138.5,P2,8.098,P2,156.3,P8,-0.5984,P2,259.4,P9,5.503,P2,156.4,P8,259.5,P9
10056,C94,6195,100.0%,Min,-200.9,P3,-9.344,P3,49.18,P55,-4.798,P24,16.19,P79,-4.927,P3,49.62,P55,16.72,P79
10057,C94,6198,0.0%,Max,62.90,P2,10.57,P2,35.56,P2,1.744,P79,157.9,P2,10.90,P2,69.04,P3,158.3,P2
10057,C94,6198,0.0%,Min,-97.17,P3,-15.72,P3,-67.22,P3,-7.040,P9,-26.79,P3,-15.04,P3,1.176,P45,6.950,P67
10057,C94,,4.0%,Max,62.90,P2,10.57,P2,39.17,P2,1.744,P79,134.6,P2,10.48,P2,65.53,P3,135.0,P2
10057,C94,,4.0%,Min,-97.17,P3,-15.72,P3,-63.62,P3,-7.040,P9,-14.24,P3,-12.65,P3,0.6545,P20,10.41,P5
10057,C94,,8.0%,Max,62.90,P2,10.57,P2,42.77,P2,1.744,P79,112.9,P25,10.06,P2,62.04,P3,113.1,P2
10057,C94,,8.0%,Min,-97.17,P3,-15.72,P3,-60.01,P3,-7.040,P9,-0.3147,P3,-10.25,P3,1.464,P63,10.26,P3
10057,C94,,12.0%,Max,62.90,P2,10.57,P2,46.38,P2,1.744,P79,105.4,P25,9.641,P2,58.55,P3,105.4,P25
10057,C94,,12.0%,Min,-97.17,P3,-15.72,P3,-56.40,P3,-7.040,P9,15.00,P3,-7.854,P3,1.700,P59,16.93,P3
10057,C94,,16.1%,Max,62.90,P2,10.57,P2,49.99,P2,1.744,P79,101.3,P6,9.221,P2,55.09,P3,101.4,P6
10057,C94,,16.1%,Min,-97.17,P3,-15.72,P3,-52.80,P3,-7.040,P9,31.69,P3,-5.457,P3,1.914,P82,32.16,P3
10057,C94,,16.1%,Max,87.34,P2,5.320,P2,71.00,P2,0.5011,P79,102.6,P6,4.494,P2,71.20,P2,102.7,P6
10057,C94,,16.1%,Min,-104.9,P3,-6.288,P3,-35.69,P3,-3.647,P9,33.77,P90,-4.672,P3,0.5305,P61,33.82,P90
10057,C94,,20.1%,Max,87.34,P2,5.320,P2,74.60,P2,0.5011,P79,117.7,P6,4.732,P2,74.79,P2,117.7,P6
10057,C94,,20.1%,Min,-104.9,P3,-6.288,P3,-32.08,P3,-3.647,P9,27.69,P3,-4.538,P3,3.370,P61,28.06,P3
10057,C94,,24.1%,Max,87.34,P2,5.320,P2,78.21,P2,0.5011,P79,138.9,P31,4.969,P2,78.39,P2,138.9,P31
10057,C94,,24.1%,Min,-104.9,P3,-6.288,P3,-28.47,P3,-3.647,P9,22.16,P3,-4.405,P3,6.653,P37,22.59,P3
10057,C94,,28.1%,Max,87.34,P2,5.320,P2,81.82,P2,0.5011,P79,163.9,P31,5.207,P2,81.99,P2,163.9,P31
10057,C94,,28.1%,Min,-104.9,P3,-6.288,P3,-24.87,P3,-3.647,P9,18.00,P3,-4.271,P3,9.995,P49,18.50,P3
10057,C94,,32.1%,Max,87.34,P2,5.320,P2,85.43,P2,0.5011,P79,190.8,P31,5.444,P2,85.59,P2,190.8,P31
10057,C94,,32.1%,Min,-104.9,P3,-6.288,P3,-21.26,P3,-3.647,P9,15.23,P3,-4.138,P3,12.63,P5,15.78,P3
10057,C94,,32.1%,Max,40.48,P2,10.61,P2,-122.8,P67,-11.03,P60,406.0,P25,11.50,P2,287.7,P25,406.1,P25
10057,C94,,32.1%,Min,-101.3,P3,-12.87,P3,-287.7,P25,-28.91,P31,159.5,P67,-12.61,P3,122.8,P67,159.5,P67
10057,C94,,36.6%,Max,40.48,P2,10.61,P2,-118.8,P67,-11.03,P60,285.0,P25,10.97,P2,282.3,P25,285.0,P25
10057,C94,,36.6%,Min,-101.3,P3,-12.87,P3,-282.3,P25,-28.91,P31,108.2,P67,-11.11,P3,118.8,P67,108.2,P67
10057,C94,,41.0%,Max,40.48,P2,10.61,P2,-114.8,P67,-11.03,P60,166.3,P24,10.43,P2,276.9,P25,166.3,P24
10057,C94,,41.0%,Min,-101.3,P3,-12.87,P3,-276.9,P25,-28.91,P31,58.55,P67,-9.617,P3,114.8,P67,58.55,P67
10057,C94,,45.5%,Max,40.48,P2,10.61,P2,-110.8,P67,-11.03,P60,50.13,P6,9.892,P2,271.5,P25,50.19,P6
10057,C94,,45.5%,Min,-101.3,P3,-12.87,P3,-271.5,P25,-28.91,P31,10.53,P3,-8.123,P3,110.8,P67,10.64,P67
10057,C94,,49.9%,Max,40.48,P2,10.61,P2,-106.8,P67,-11.03,P60,-20.66,P2,9.355,P2,266.1,P25,69.21,P30
10057,C94,,49.9%,Min,-101.3,P3,-12.87,P3,-266.1,P25,-28.91,P31,-69.16,P30,-6.629,P3,106.8,P67,22.68,P2
10057,C94,,49.9%,Max,81.22,P2,11.47,P2,-96.90,P66,-6.664,P82,-44.43,P76,10.59,P2,226.3,P6,116.8,P32
10057,C94,,49.9%,Min,-111.0,P3,-15.08,P3,-226.3,P6,-20.72,P6,-116.8,P32,-12.94,P3,96.94,P66,45.06,P76
10057,C94,,54.4%,Max,81.22,P2,11.47,P2,-92.90,P66,-6.664,P82,-88.92,P76,11.14,P2,221.0,P6,210.3,P33
10057,C94,,54.4%,Min,-111.0,P3,-15.08,P3,-220.9,P6,-20.72,P6,-210.3,P33,-11.95,P3,92.94,P66,88.99,P76
10057,C94,,58.8%,Max,81.22,P2,11.47,P2,-88.90,P66,-6.664,P82,-131.7,P76,11.69,P2,215.6,P6,301.5,P33
10057,C94,,58.8%,Min,-111.0,P3,-15.08,P3,-215.5,P6,-20.72,P6,-301.5,P33,-10.97,P3,88.95,P66,131.7,P76
10057,C94,,63.3%,Max,81.22,P2,11.47,P2,-84.91,P66,-6.664,P82,-171.1,P67,12.24,P2,210.2,P6,390.6,P25
10057,C94,,63.3%,Min,-111.0,P3,-15.08,P3,-210.1,P6,-20.72,P6,-390.6,P25,-9.982,P3,84.95,P66,171.1,P67
10057,C94,,67.7%,Max,81.22,P2,11.47,P2,-80.91,P66,-6.664,P82,-206.3,P67,12.79,P2,204.8,P6,478.5,P25
10057,C94,,67.7%,Min,-111.0,P3,-15.08,P3,-204.7,P6,-20.72,P6,-478.5,P25,-8.997,P3,80.96,P66,206.3,P67
10057,C94,,67.7%,Max,93.90,P2,14.80,P4,51.30,P8,16.35,P29,-211.7,P67,11.69,P4,51.72,P8,492.6,P25
10057,C94,,67.7%,Min,-101.0,P3,-11.07,P5,14.90,P72,5.620,P3,-492.6,P25,-8.689,P5,14.90,P72,211.7,P67
10057,C94,,71.8%,Max,93.90,P2,14.80,P4,56.20,P8,16.35,P29,-202.2,P67,10.88,P4,56.57,P8,473.0,P25
10057,C94,,71.8%,Min,-101.0,P3,-11.07,P5,18.52,P72,5.620,P3,-473.0,P25,-9.314,P5,18.52,P72,202.2,P67
10057,C94,,75.8%,Max,93.90,P2,14.80,P4,61.09,P8,16.35,P29,-191.3,P67,10.07,P4,61.43,P8,451.6,P6
10057,C94,,75.8%,Min,-101.0,P3,-11.07,P5,22.15,P72,5.620,P3,-451.6,P6,-9.940,P5,22.15,P72,191.3,P67
10057,C94,,79.8%,Max,93.90,P2,14.80,P4,65.98,P8,16.35,P29,-179.0,P66,9.254,P4,66.30,P8,428.5,P6
10057,C94,,79.8%,Min,-101.0,P3,-11.07,P5,25.77,P72,5.620,P3,-428.5,P6,-10.57,P5,25.77,P72,179.0,P66
10057,C94,,83.9%,Max,93.90,P2,14.80,P4,70.87,P8,16.35,P29,-165.4,P66,8.443,P4,71.17,P8,403.6,P6
10057,C94,,83.9%,Min,-101.0,P3,-11.07,P5,29.39,P72,5.620,P3,-403.6,P6,-11.19,P5,29.39,P72,165.4,P66
10057,C94,,83.9%,Max,130.5,P2,21.49,P2,160.4,P25,31.76,P8,-158.9,P66,14.52,P2,160.4,P25,396.9,P6
10057,C94,,83.9%,Min,-97.87,P3,-23.32,P3,65.75,P55,10.80,P72,-396.9,P6,-16.29,P3,66.09,P43,158.9,P66
10057,C94,,87.9%,Max,130.5,P2,21.49,P2,165.3,P25,31.76,P8,-132.7,P66,15.82,P2,165.3,P25,334.6,P6
10057,C94,,87.9%,Min,-97.87,P3,-23.32,P3,69.37,P55,10.80,P72,-334.6,P6,-16.88,P3,69.70,P43,132.7,P66
10057,C94,,91.9%,Max,130.5,P2,21.49,P2,170.2,P25,31.76,P8,-104.8,P90,17.12,P2,170.2,P25,270.3,P6
10057,C94,,91.9%,Min,-97.87,P3,-23.32,P3,72.99,P55,10.80,P72,-270.3,P6,-17.48,P3,73.32,P43,104.8,P90
10057,C94,,96.0%,Max,130.5,P2,21.49,P2,175.1,P25,31.76,P8,-75.41,P90,18.43,P2,175.1,P25,204.2,P6
10057,C94,,96.0%,Min,-97.87,P3,-23.32,P3,76.62,P55,10.80,P72,-204.2,P6,-18.07,P3,76.94,P43,75.48,P90
10057,C94,7668,100.0%,Max,130.5,P2,21.49,P2,180.0,P25,31.76,P8,-44.62,P90,19.73,P2,180.0,P25,136.3,P6
10057,C94,7668,100.0%,Min,-97.87,P3,-23.32,P3,80.24,P55,10.80,P72,-136.2,P6,-18.67,P3,80.56,P43,45.02,P90
10058,C94,4790,0.0%,Max,246.8,P2,36.72,P2,-369.8,P55,-32.64,P55,3217.,P8,37.08,P2,824.1,P8,3217.,P8
10058,C94,4790,0.0%,Min,-152.9,P3,-28.65,P3,-823.9,P8,-77.20,P8,1385.,P79,-27.36,P3,370.3,P55,1385.,P79
10058,C94,,8.3%,Max,246.8,P2,36.72,P2,-365.3,P55,-32.64,P55,2906.,P8,31.91,P2,818.1,P8,2906.,P8
10058,C94,,8.3%,Min,-152.9,P3,-28.65,P3,-817.9,P8,-77.20,P8,1245.,P79,-25.24,P3,365.8,P55,1245.,P79
10058,C94,,16.7%,Max,246.8,P2,36.72,P2,-360.9,P55,-32.64,P55,2598.,P8,26.73,P2,812.1,P8,2598.,P8
10058,C94,,16.7%,Min,-152.9,P3,-28.65,P3,-811.9,P8,-77.20,P8,1106.,P79,-23.11,P3,361.4,P55,1106.,P79
10058,C94,,25.0%,Max,246.8,P2,36.72,P2,-356.4,P55,-32.64,P55,2292.,P8,21.56,P2,806.0,P8,2292.,P8
10058,C94,,25.0%,Min,-152.9,P3,-28.65,P3,-805.9,P8,-77.20,P8,969.6,P79,-20.99,P3,356.9,P55,969.6,P79
10058,C94,,33.3%,Max,246.8,P2,36.72,P2,-352.0,P55,-32.64,P55,1988.,P8,16.38,P2,800.0,P8,1988.,P8
10058,C94,,33.3%,Min,-152.9,P3,-28.65,P3,-799.9,P8,-77.20,P8,834.7,P79,-18.86,P3,352.5,P55,834.7,P79
10058,C94,,33.3%,Max,252.9,P2,21.11,P2,-323.4,P2,-14.71,P76,1924.,P8,19.86,P2,730.0,P8,1924.,P8
10058,C94,,33.3%,Min,-145.4,P3,-15.07,P3,-729.9,P8,-34.62,P8,807.3,P79,-13.49,P3,324.0,P2,807.3,P79
10058,C94,,41.7%,Max,252.9,P2,21.11,P2,-318.9,P2,-14.71,P76,1649.,P8,17.30,P2,724.0,P8,1649.,P8
10058,C94,,41.7%,Min,-145.4,P3,-15.07,P3,-723.9,P8,-34.62,P8,683.2,P79,-13.21,P3,319.6,P2,683.2,P79
10058,C94,,50.0%,Max,252.9,P2,21.11,P2,-314.5,P2,-14.71,P76,1376.,P8,14.73,P2,718.0,P8,1376.,P8
10058,C94,,50.0%,Min,-145.4,P3,-15.07,P3,-717.9,P8,-34.62,P8,560.7,P79,-12.93,P3,315.2,P2,560.7,P79
10058,C94,,58.3%,Max,252.9,P2,21.11,P2,-310.0,P2,-14.71,P76,1106.,P8,12.17,P2,712.0,P8,1106.,P8
10058,C94,,58.3%,Min,-145.4,P3,-15.07,P3,-711.9,P8,-34.62,P8,439.5,P76,-12.65,P3,310.7,P2,439.5,P76
10058,C94,,66.7%,Max,252.9,P2,21.11,P2,-305.6,P2,-14.71,P76,837.9,P8,9.607,P2,705.9,P8,837.9,P8
10058,C94,,66.7%,Min,-145.4,P3,-15.07,P3,-705.9,P8,-34.62,P8,316.3,P76,-12.38,P3,306.3,P2,316.3,P76
10058,C94,,66.7%,Max,274.3,P2,63.27,P2,-248.5,P2,-2.805,P4,792.5,P8,40.79,P2,587.7,P8,792.7,P8
10058,C94,,66.7%,Min,-145.5,P3,-38.62,P3,-587.2,P8,-8.969,P8,296.0,P76,-22.62,P3,256.4,P2,296.1,P76
10058,C94,,75.0%,Max,274.3,P2,63.27,P2,-244.0,P2,-2.805,P4,571.5,P8,39.56,P2,581.7,P8,571.6,P8
10058,C94,,75.0%,Min,-145.5,P3,-38.62,P3,-581.2,P8,-8.969,P8,194.9,P76,-30.71,P3,252.1,P2,195.0,P76
10058,C94,,83.3%,Max,274.3,P2,63.27,P2,-239.6,P2,-2.805,P4,352.9,P8,38.33,P2,575.7,P8,352.9,P8
10058,C94,,83.3%,Min,-145.5,P3,-38.62,P3,-575.2,P8,-8.969,P8,93.48,P3,-38.81,P3,247.8,P2,95.57,P76
10058,C94,,91.7%,Max,274.3,P2,63.27,P2,-235.1,P2,-2.805,P4,142.1,P9,37.09,P2,569.7,P8,142.6,P9
10058,C94,,91.7%,Min,-145.5,P3,-38.62,P3,-569.2,P8,-8.969,P8,-15.27,P3,-46.90,P3,243.5,P2,3.649,P77
10058,C94,6199,100.0%,Max,274.3,P2,63.27,P2,-230.7,P2,-2.805,P4,9.190,P2,35.86,P2,563.7,P8,134.1,P3
10058,C94,6199,100.0%,Min,-145.5,P3,-38.62,P3,-563.2,P8,-8.969,P8,-128.6,P7,-54.99,P3,239.2,P2,3.693,P91
10059,C94,7668,0.0%,Max,240.7,P2,9.281,P2,-55.71,P55,-7.178,P61,288.8,P6,7.095,P2,135.5,P24,288.8,P6
10059,C94,7668,0.0%,Min,-367.7,P3,-5.715,P3,-135.4,P24,-18.34,P31,102.5,P93,-4.113,P3,55.75,P55,102.5,P93
10059,C94,,3.6%,Max,240.7,P2,9.281,P2,-53.63,P55,-7.178,P61,240.0,P6,6.398,P2,132.7,P24,240.0,P6
10059,C94,,3.6%,Min,-367.7,P3,-5.715,P3,-132.6,P24,-18.34,P31,81.39,P83,-4.728,P3,53.67,P55,81.39,P83
10059,C94,,7.1%,Max,240.7,P2,9.281,P2,-51.56,P55,-7.178,P61,192.2,P6,5.702,P2,129.9,P24,192.2,P6
10059,C94,,7.1%,Min,-367.7,P3,-5.715,P3,-129.8,P24,-18.34,P31,60.99,P83,-5.343,P3,51.60,P55,60.99,P83
10059,C94,,10.7%,Max,240.7,P2,9.281,P2,-49.48,P55,-7.178,P61,145.4,P6,5.006,P2,127.0,P24,145.4,P6
10059,C94,,10.7%,Min,-367.7,P3,-5.715,P3,-127.0,P24,-18.34,P31,41.34,P83,-5.958,P3,49.52,P55,41.35,P83
10059,C94,,14.3%,Max,240.7,P2,9.281,P2,-47.40,P55,-7.178,P61,99.70,P6,4.310,P2,124.2,P24,99.74,P6
10059,C94,,14.3%,Min,-367.7,P3,-5.715,P3,-124.2,P24,-18.34,P31,18.81,P5,-6.573,P3,47.45,P55,19.78,P5
10059,C94,,14.3%,Max,261.0,P2,7.088,P2,-57.11,P90,-6.080,P61,74.13,P6,4.505,P2,147.5,P6,74.15,P6
10059,C94,,14.3%,Min,-360.7,P3,-5.196,P3,-147.4,P6,-15.42,P31,6.632,P5,-3.074,P3,57.12,P90,7.202,P5
10059,C94,,17.9%,Max,261.0,P2,7.088,P2,-55.03,P90,-6.080,P61,29.68,P4,4.529,P2,144.7,P6,29.99,P4
10059,C94,,17.9%,Min,-360.7,P3,-5.196,P3,-144.6,P6,-15.42,P31,-18.67,P5,-3.794,P3,55.04,P90,0.1707,P35
10059,C94,,21.4%,Max,261.0,P2,7.088,P2,-52.95,P90,-6.080,P61,2.094,P4,4.553,P2,141.9,P6,43.41,P5
10059,C94,,21.4%,Min,-360.7,P3,-5.196,P3,-141.8,P6,-15.42,P31,-43.27,P9,-4.513,P3,52.97,P90,4.783,P4
10059,C94,,25.0%,Max,261.0,P2,7.088,P2,-50.88,P90,-6.080,P61,-24.73,P4,4.577,P2,139.1,P6,93.24,P8
10059,C94,,25.0%,Min,-360.7,P3,-5.196,P3,-139.0,P6,-15.42,P31,-93.24,P8,-5.232,P3,50.89,P90,25.11,P4
10059,C94,,28.6%,Max,261.0,P2,7.088,P2,-48.80,P90,-6.080,P61,-49.19,P79,4.600,P2,136.3,P6,142.6,P8
10059,C94,,28.6%,Min,-360.7,P3,-5.196,P3,-136.2,P6,-15.42,P31,-142.6,P8,-5.952,P3,48.81,P90,49.23,P79
10059,C94,,28.6%,Max,291.4,P2,8.319,P2,-37.23,P83,-2.455,P2,-51.94,P79,5.433,P2,96.78,P6,148.9,P8
10059,C94,,28.6%,Min,-350.0,P3,-9.429,P3,-96.78,P6,-7.664,P8,-148.9,P8,-6.305,P3,37.35,P83,51.96,P79
10059,C94,,32.1%,Max,291.4,P2,8.319,P2,-35.15,P83,-2.455,P2,-67.60,P79,5.970,P2,93.98,P6,182.7,P8
10059,C94,,32.1%,Min,-350.0,P3,-9.429,P3,-93.98,P6,-7.664,P8,-182.7,P8,-6.434,P3,35.28,P83,67.61,P79
10059,C94,,35.7%,Max,291.4,P2,8.319,P2,-33.08,P83,-2.455,P2,-82.50,P79,6.507,P2,91.18,P6,215.5,P8
10059,C94,,35.7%,Min,-350.0,P3,-9.429,P3,-91.18,P6,-7.664,P8,-215.5,P8,-6.563,P3,33.22,P83,82.50,P79
10059,C94,,39.3%,Max,291.4,P2,8.319,P2,-31.00,P83,-2.455,P2,-96.37,P55,7.043,P2,88.37,P6,247.2,P8
10059,C94,,39.3%,Min,-350.0,P3,-9.429,P3,-88.37,P6,-7.664,P8,-247.2,P8,-6.691,P3,31.15,P83,96.37,P55
10059,C94,,42.9%,Max,291.4,P2,8.319,P2,-28.92,P83,-2.455,P2,-109.3,P55,7.580,P2,85.57,P6,277.9,P25
10059,C94,,42.9%,Min,-350.0,P3,-9.429,P3,-85.57,P6,-7.664,P8,-277.9,P25,-6.820,P3,29.08,P83,109.3,P55
10059,C94,,42.9%,Max,246.1,P2,4.982,P4,0.01025,P2,3.158,P31,-112.9,P79,3.658,P4,17.81,P3,284.1,P8
10059,C94,,42.9%,Min,-291.8,P3,-6.276,P5,-16.70,P3,0.6912,P60,-284.1,P8,-4.426,P5,4.501,P83,112.9,P79
10059,C94,,46.4%,Max,246.1,P2,4.982,P4,2.087,P2,3.158,P31,-116.4,P55,3.954,P4,15.88,P3,288.3,P8
10059,C94,,46.4%,Min,-291.8,P3,-6.276,P5,-14.62,P3,0.6912,P60,-288.3,P8,-4.247,P5,2.577,P83,116.4,P55
10059,C94,,50.0%,Max,246.1,P2,4.982,P4,4.163,P2,3.158,P31,-119.1,P55,4.250,P4,13.99,P3,291.8,P25
10059,C94,,50.0%,Min,-291.8,P3,-6.276,P5,-12.55,P3,0.6912,P60,-291.8,P25,-4.068,P5,0.9034,P93,119.1,P55
10059,C94,,53.6%,Max,246.1,P2,4.982,P4,6.240,P2,3.158,P31,-120.6,P67,4.546,P4,12.17,P3,294.4,P25
10059,C94,,53.6%,Min,-291.8,P3,-6.276,P5,-10.47,P3,0.6912,P60,-294.4,P25,-3.888,P5,0.4604,P68,120.6,P67
10059,C94,,57.1%,Max,246.1,P2,4.982,P4,8.317,P2,3.158,P31,-120.3,P91,4.842,P4,10.43,P3,296.2,P6
10059,C94,,57.1%,Min,-291.8,P3,-6.276,P5,-8.394,P3,0.6912,P60,-296.2,P6,-3.709,P5,0.07630,P42,120.3,P91
10059,C94,,57.1%,Max,240.7,P2,3.141,P2,46.39,P8,9.357,P31,-120.8,P89,2.388,P2,46.41,P8,295.5,P22
10059,C94,,57.1%,Min,-263.5,P3,-2.452,P3,14.43,P79,3.800,P48,-295.5,P22,-1.434,P3,14.54,P79,120.8,P89
10059,C94,,60.7%,Max,240.7,P2,3.141,P2,49.19,P8,9.357,P31,-113.3,P89,2.465,P2,49.21,P8,278.5,P6
10059,C94,,60.7%,Min,-263.5,P3,-2.452,P3,16.51,P79,3.800,P48,-278.5,P6,-1.764,P3,16.61,P79,113.3,P89
10059,C94,,64.3%,Max,240.7,P2,3.141,P2,51.99,P8,9.357,P31,-105.0,P89,2.542,P2,52.02,P8,260.9,P6
10059,C94,,64.3%,Min,-263.5,P3,-2.452,P3,18.59,P79,3.800,P48,-260.9,P6,-2.095,P3,18.67,P79,105.0,P89
10059,C94,,67.9%,Max,240.7,P2,3.141,P2,54.80,P8,9.357,P31,-95.93,P89,2.620,P2,54.82,P8,242.1,P6
10059,C94,,67.9%,Min,-263.5,P3,-2.452,P3,20.66,P79,3.800,P48,-242.1,P6,-2.426,P3,20.74,P79,95.93,P89
10059,C94,,71.4%,Max,240.7,P2,3.141,P2,57.60,P8,9.357,P31,-86.09,P85,2.749,P4,57.62,P8,222.4,P6
10059,C94,,71.4%,Min,-263.5,P3,-2.452,P3,22.74,P79,3.800,P48,-222.4,P6,-2.808,P5,22.81,P79,86.09,P85
10059,C94,,71.4%,Max,232.7,P2,5.929,P13,150.4,P8,15.99,P24,-79.82,P85,5.242,P13,150.4,P8,208.1,P6
10059,C94,,71.4%,Min,-223.2,P3,-2.388,P55,58.28,P79,6.336,P55,-208.1,P6,-2.112,P55,58.29,P79,79.91,P85
10059,C94,,75.0%,Max,232.7,P2,5.929,P13,153.2,P8,15.99,P24,-56.75,P85,3.642,P4,153.2,P8,153.0,P6
10059,C94,,75.0%,Min,-223.2,P3,-2.388,P55,60.36,P79,6.336,P55,-153.0,P6,-1.411,P5,60.36,P79,56.80,P85
10059,C94,,78.6%,Max,232.7,P2,5.929,P13,156.0,P8,15.99,P24,-28.71,P2,2.901,P4,156.0,P8,96.82,P6
10059,C94,,78.6%,Min,-223.2,P3,-2.388,P55,62.43,P79,6.336,P55,-96.82,P6,-2.456,P5,62.44,P79,28.84,P2
10059,C94,,82.1%,Max,232.7,P2,5.929,P13,158.8,P8,15.99,P24,1.179,P2,2.160,P4,158.8,P8,39.65,P6
10059,C94,,82.1%,Min,-223.2,P3,-2.388,P55,64.51,P79,6.336,P55,-39.64,P6,-3.501,P5,64.52,P79,2.180,P2
10059,C94,,85.7%,Max,232.7,P2,5.929,P13,161.6,P8,15.99,P24,31.83,P2,1.419,P4,161.6,P8,31.85,P2
10059,C94,,85.7%,Min,-223.2,P3,-2.388,P55,66.58,P79,6.336,P55,-7.743,P3,-4.545,P5,66.59,P79,1.983,P79
10059,C94,,85.7%,Max,215.9,P2,11.30,P13,215.9,P25,16.73,P6,58.38,P8,8.586,P13,216.1,P25,58.58,P8
10059,C94,,85.7%,Min,-191.5,P3,-2.878,P67,86.67,P55,6.648,P83,7.424,P3,-2.335,P67,86.69,P55,7.630,P3
10059,C94,,89.3%,Max,215.9,P2,11.30,P13,218.7,P25,16.73,P6,138.3,P8,6.183,P2,218.9,P25,138.3,P8
10059,C94,,89.3%,Min,-191.5,P3,-2.878,P67,88.74,P55,6.648,P83,45.03,P3,-3.109,P3,88.76,P55,45.14,P3
10059,C94,,92.9%,Max,215.9,P2,11.30,P13,221.5,P25,16.73,P6,219.2,P8,4.278,P2,221.7,P25,219.2,P8
10059,C94,,92.9%,Min,-191.5,P3,-2.878,P67,90.82,P55,6.648,P83,79.51,P79,-4.460,P3,90.84,P55,79.51,P79
10059,C94,,96.4%,Max,215.9,P2,11.30,P13,224.3,P25,16.73,P6,301.1,P8,2.372,P2,224.5,P25,301.1,P8
10059,C94,,96.4%,Min,-191.5,P3,-2.878,P67,92.90,P55,6.648,P83,113.4,P79,-5.811,P3,92.92,P55,113.4,P79
10059,C94,6200,100.0%,Max,215.9,P2,11.30,P13,227.1,P25,16.73,P6,384.1,P8,1.898,P67,227.3,P25,384.1,P8
10059,C94,6200,100.0%,Min,-191.5,P3,-2.878,P67,94.97,P55,6.648,P83,148.0,P79,-8.036,P13,94.99,P55,148.0,P79
10066,C94,6206,0.0%,Max,116.4,P2,9.935,P2,-81.98,P79,10.31,P6,12.27,P7,7.581,P2,198.9,P8,13.24,P2
10066,C94,6206,0.0%,Min,-189.2,P3,-8.473,P3,-198.9,P8,3.865,P93,0.4863,P90,-6.443,P3,82.16,P79,1.308,P66
10066,C94,,3.7%,Max,116.4,P2,9.935,P2,-79.97,P79,10.31,P6,-18.86,P77,7.089,P2,196.2,P8,63.11,P8
10066,C94,,3.7%,Min,-189.2,P3,-8.473,P3,-196.2,P8,3.865,P93,-63.11,P8,-6.470,P3,80.16,P79,19.01,P77
10066,C94,,7.4%,Max,116.4,P2,9.935,P2,-77.97,P79,10.31,P6,-46.94,P76,6.597,P2,193.5,P8,132.2,P8
10066,C94,,7.4%,Min,-189.2,P3,-8.473,P3,-193.5,P8,3.865,P93,-132.2,P8,-6.496,P3,78.17,P79,46.95,P76
10066,C94,,11.2%,Max,116.4,P2,9.935,P2,-75.96,P79,10.31,P6,-74.30,P76,6.104,P2,190.8,P8,200.4,P8
10066,C94,,11.2%,Min,-189.2,P3,-8.473,P3,-190.8,P8,3.865,P93,-200.4,P8,-6.522,P3,76.17,P79,74.32,P76
10066,C94,,14.9%,Max,116.4,P2,9.935,P2,-73.96,P79,10.31,P6,-100.9,P76,5.612,P2,188.1,P8,267.6,P8
10066,C94,,14.9%,Min,-189.2,P3,-8.473,P3,-188.1,P8,3.865,P93,-267.6,P8,-6.548,P3,74.17,P79,101.0,P76
10066,C94,,14.9%,Max,124.6,P2,5.838,P2,-49.26,P55,5.143,P6,-112.1,P76,4.012,P2,129.2,P8,294.2,P8
10066,C94,,14.9%,Min,-200.4,P3,-5.115,P3,-129.2,P8,0.7322,P85,-294.2,P8,-3.520,P3,49.34,P55,112.2,P76
10066,C94,,18.6%,Max,124.6,P2,5.838,P2,-47.26,P55,5.143,P6,-130.6,P76,3.948,P2,126.5,P8,339.5,P8
10066,C94,,18.6%,Min,-200.4,P3,-5.115,P3,-126.5,P8,0.7322,P85,-339.5,P8,-3.713,P3,47.34,P55,130.6,P76
10066,C94,,22.3%,Max,124.6,P2,5.838,P2,-45.26,P55,5.143,P6,-148.3,P76,3.884,P2,123.8,P8,383.9,P8
10066,C94,,22.3%,Min,-200.4,P3,-5.115,P3,-123.8,P8,0.7322,P85,-383.9,P8,-3.905,P3,45.34,P55,148.3,P76
10066,C94,,26.0%,Max,124.6,P2,5.838,P2,-43.25,P55,5.143,P6,-164.2,P79,3.820,P2,121.1,P8,427.4,P8
10066,C94,,26.0%,Min,-200.4,P3,-5.115,P3,-121.1,P8,0.7322,P85,-427.4,P8,-4.098,P3,43.34,P55,164.2,P79
10066,C94,,29.7%,Max,124.6,P2,5.838,P2,-41.25,P55,5.143,P6,-179.4,P79,3.756,P2,118.4,P8,469.8,P8
10066,C94,,29.7%,Min,-200.4,P3,-5.115,P3,-118.4,P8,0.7322,P85,-469.8,P8,-4.291,P3,41.34,P55,179.5,P79
10066,C94,,29.7%,Max,137.9,P2,4.248,P2,-6.439,P79,0.7725,P79,-181.9,P79,2.807,P2,20.70,P8,475.3,P8
10066,C94,,29.7%,Min,-215.3,P3,-3.753,P3,-20.67,P8,-0.7438,P3,-475.3,P8,-2.427,P3,6.802,P55,181.9,P79
10066,C94,,33.5%,Max,137.9,P2,4.248,P2,-4.435,P79,0.7725,P79,-183.8,P79,2.845,P2,17.99,P8,482.1,P8
10066,C94,,33.5%,Min,-215.3,P3,-3.753,P3,-17.96,P8,-0.7438,P3,-482.1,P8,-2.641,P3,4.944,P55,183.9,P79
10066,C94,,37.2%,Max,137.9,P2,4.248,P2,-2.432,P79,0.7725,P79,-185.1,P79,2.883,P2,15.30,P8,488.0,P8
10066,C94,,37.2%,Min,-215.3,P3,-3.753,P3,-15.26,P8,-0.7438,P3,-488.0,P8,-2.854,P3,3.264,P55,185.1,P79
10066,C94,,40.9%,Max,137.9,P2,4.248,P2,-0.4281,P79,0.7725,P79,-185.6,P79,2.921,P2,12.60,P8,492.9,P8
10066,C94,,40.9%,Min,-215.3,P3,-3.753,P3,-12.55,P8,-0.7438,P3,-492.9,P8,-3.068,P3,1.908,P43,185.6,P79
10066,C94,,44.6%,Max,137.9,P2,4.248,P2,1.576,P79,0.7725,P79,-185.4,P79,2.959,P2,9.908,P8,496.9,P8
10066,C94,,44.6%,Min,-215.3,P3,-3.753,P3,-9.847,P8,-0.7438,P3,-496.9,P8,-3.282,P3,0.6143,P42,185.4,P79
10066,C94,,44.6%,Max,167.1,P2,4.294,P2,67.64,P31,0.6441,P24,-183.4,P79,2.955,P2,67.64,P31,492.2,P8
10066,C94,,44.6%,Min,-243.8,P3,-3.962,P3,24.24,P85,-0.09609,P3,-492.2,P8,-2.621,P3,24.30,P85,183.4,P79
10066,C94,,48.3%,Max,167.1,P2,4.294,P2,70.34,P31,0.6441,P24,-173.0,P79,2.990,P2,70.35,P31,468.4,P8
10066,C94,,48.3%,Min,-243.8,P3,-3.962,P3,26.24,P85,-0.09609,P3,-468.4,P8,-2.774,P3,26.30,P85,173.0,P79
10066,C94,,52.0%,Max,167.1,P2,4.294,P2,73.05,P31,0.6441,P24,-161.9,P79,3.025,P2,73.05,P31,443.7,P8
10066,C94,,52.0%,Min,-243.8,P3,-3.962,P3,28.24,P85,-0.09609,P3,-443.7,P8,-2.927,P3,28.30,P85,161.9,P79
10066,C94,,55.8%,Max,167.1,P2,4.294,P2,75.75,P31,0.6441,P24,-150.1,P79,3.060,P2,75.76,P31,418.1,P8
10066,C94,,55.8%,Min,-243.8,P3,-3.962,P3,30.25,P85,-0.09609,P3,-418.1,P8,-3.079,P3,30.30,P85,150.1,P79
10066,C94,,59.5%,Max,167.1,P2,4.294,P2,78.46,P31,0.6441,P24,-137.6,P79,3.095,P2,78.46,P31,391.4,P8
10066,C94,,59.5%,Min,-243.8,P3,-3.962,P3,32.25,P85,-0.09609,P3,-391.4,P8,-3.232,P3,32.30,P85,137.6,P79
10066,C94,,59.5%,Max,229.3,P2,5.710,P2,175.4,P22,-0.8549,P2,-131.6,P79,3.819,P2,175.4,P22,375.9,P8
10066,C94,,59.5%,Min,-297.3,P3,-5.007,P3,70.26,P69,-5.199,P6,-375.9,P8,-3.163,P3,70.28,P69,131.6,P79
10066,C94,,63.2%,Max,229.3,P2,5.710,P2,178.1,P22,-0.8549,P2,-105.9,P79,3.871,P2,178.1,P22,313.3,P8
10066,C94,,63.2%,Min,-297.3,P3,-5.007,P3,72.27,P69,-5.199,P6,-313.3,P8,-3.464,P3,72.29,P69,105.9,P79
10066,C94,,66.9%,Max,229.3,P2,5.710,P2,180.8,P22,-0.8549,P2,-79.49,P79,3.923,P2,180.9,P22,249.8,P8
10066,C94,,66.9%,Min,-297.3,P3,-5.007,P3,74.27,P69,-5.199,P6,-249.8,P8,-3.766,P3,74.29,P69,79.49,P79
10066,C94,,70.6%,Max,229.3,P2,5.710,P2,183.5,P22,-0.8549,P2,-52.36,P79,3.975,P2,183.6,P22,185.3,P8
10066,C94,,70.6%,Min,-297.3,P3,-5.007,P3,76.27,P69,-5.199,P6,-185.3,P8,-4.067,P3,76.29,P69,52.39,P79
10066,C94,,74.3%,Max,229.3,P2,5.710,P2,186.2,P22,-0.8549,P2,-24.51,P79,4.027,P2,186.3,P22,119.9,P8
10066,C94,,74.3%,Min,-297.3,P3,-5.007,P3,78.28,P69,-5.199,P6,-119.9,P8,-4.369,P3,78.30,P69,24.69,P79
10066,C94,,74.3%,Max,318.2,P2,2.414,P55,256.2,P8,-1.831,P84,-15.77,P79,1.365,P50,256.3,P8,98.33,P8
10066,C94,,74.3%,Min,-379.0,P3,-4.542,P3,100.6,P81,-7.892,P6,-98.32,P8,-2.039,P3,100.6,P81,15.81,P79
10066,C94,,78.1%,Max,318.2,P2,2.414,P55,258.9,P8,-1.831,P84,21.55,P2,2.197,P2,259.0,P8,21.66,P2
10066,C94,,78.1%,Min,-379.0,P3,-4.542,P3,102.6,P81,-7.892,P6,-21.02,P3,-2.058,P3,102.6,P81,0.3848,P45
10066,C94,,81.8%,Max,318.2,P2,2.414,P55,261.7,P8,-1.831,P84,100.4,P6,3.209,P2,261.7,P8,100.4,P6
10066,C94,,81.8%,Min,-379.0,P3,-4.542,P3,104.6,P81,-7.892,P6,24.74,P85,-2.078,P3,104.6,P81,24.78,P85
10066,C94,,85.5%,Max,318.2,P2,2.414,P55,264.4,P8,-1.831,P84,192.4,P6,4.222,P2,264.4,P8,192.4,P6
10066,C94,,85.5%,Min,-379.0,P3,-4.542,P3,106.6,P81,-7.892,P6,64.52,P85,-2.097,P3,106.6,P81,64.57,P85
10066,C94,,89.2%,Max,318.2,P2,2.414,P55,267.1,P8,-1.831,P84,285.9,P31,5.234,P2,267.1,P8,285.9,P31
10066,C94,,89.2%,Min,-379.0,P3,-4.542,P3,108.6,P81,-7.892,P6,105.0,P85,-2.483,P55,108.6,P81,105.1,P85
10066,C94,,89.2%,Max,502.2,P2,89.13,P2,170.6,P8,-1.440,P77,301.9,P31,55.52,P2,172.8,P8,302.3,P6
10066,C94,,89.2%,Min,-596.9,P3,-51.20,P3,25.61,P3,-6.935,P22,115.3,P93,-32.87,P3,51.91,P79,115.4,P93
10066,C94,,91.9%,Max,502.2,P2,89.13,P2,172.6,P8,-1.440,P77,342.9,P31,46.60,P2,174.8,P8,342.9,P31
10066,C94,,91.9%,Min,-596.9,P3,-51.20,P3,27.06,P3,-6.935,P22,136.8,P85,-33.71,P3,53.36,P79,137.1,P85
10066,C94,,94.6%,Max,502.2,P2,89.13,P2,174.5,P8,-1.440,P77,384.4,P31,37.69,P2,176.7,P8,384.4,P31
10066,C94,,94.6%,Min,-596.9,P3,-51.20,P3,28.51,P3,-6.935,P22,156.0,P60,-34.56,P3,54.80,P79,156.0,P60
10066,C94,,97.3%,Max,502.2,P2,89.13,P2,176.5,P8,-1.440,P77,427.9,P33,28.77,P2,178.7,P8,427.9,P33
10066,C94,,97.3%,Min,-596.9,P3,-51.20,P3,29.97,P3,-6.935,P22,170.1,P48,-35.40,P3,56.25,P79,170.4,P48
10066,C94,5030,100.0%,Max,502.2,P2,89.13,P2,178.5,P8,-1.440,P77,473.0,P33,19.86,P2,180.6,P8,473.1,P33
10066,C94,5030,100.0%,Min,-596.9,P3,-51.20,P3,31.42,P3,-6.935,P22,184.5,P48,-36.25,P3,57.70,P79,186.3,P48
10107,C94,6032,0.0%,Max,25.95,P2,9.081,P2,-250.0,P69,37.75,P6,248.3,P7,9.795,P2,549.9,P6,248.3,P7
10107,C94,6032,0.0%,Min,-21.20,P3,-9.395,P3,-549.9,P6,13.66,P82,39.35,P93,-10.03,P3,250.0,P69,39.74,P93
10107,C94,,3.6%,Max,25.95,P2,9.081,P2,-245.3,P69,37.75,P6,65.94,P79,8.598,P2,543.6,P6,66.03,P79
10107,C94,,3.6%,Min,-21.20,P3,-9.395,P3,-543.6,P6,13.66,P82,-61.75,P3,-8.707,P3,245.4,P69,0.8311,P27
10107,C94,,7.1%,Max,25.95,P2,9.081,P2,-240.7,P69,37.75,P6,-32.18,P79,7.401,P2,537.3,P6,253.3,P9
10107,C94,,7.1%,Min,-21.20,P3,-9.395,P3,-537.3,P6,13.66,P82,-253.3,P9,-7.386,P3,240.7,P69,32.23,P79
10107,C94,,10.7%,Max,25.95,P2,9.081,P2,-236.0,P69,37.75,P6,-128.4,P79,6.204,P2,531.0,P6,462.2,P8
10107,C94,,10.7%,Min,-21.20,P3,-9.395,P3,-531.0,P6,13.66,P82,-462.2,P8,-6.065,P3,236.0,P69,128.4,P79
10107,C94,,14.3%,Max,25.95,P2,9.081,P2,-231.4,P69,37.75,P6,-222.9,P79,5.007,P2,524.7,P6,670.4,P8
10107,C94,,14.3%,Min,-21.20,P3,-9.395,P3,-524.7,P6,13.66,P82,-670.4,P8,-4.744,P3,231.4,P69,222.9,P79
10107,C94,,14.3%,Max,52.91,P76,3.691,P2,-188.3,P2,38.33,P6,-221.3,P79,3.549,P2,426.7,P6,683.7,P8
10107,C94,,14.3%,Min,-53.45,P93,-3.772,P3,-426.7,P6,13.77,P92,-683.7,P8,-3.169,P3,188.3,P2,221.3,P79
10107,C94,,17.9%,Max,52.91,P76,3.691,P2,-183.6,P2,38.33,P6,-299.4,P79,3.408,P2,420.4,P6,850.7,P8
10107,C94,,17.9%,Min,-53.45,P93,-3.772,P3,-420.4,P6,13.77,P92,-850.7,P8,-2.996,P3,183.7,P2,299.4,P79
10107,C94,,21.4%,Max,52.91,P76,3.691,P2,-179.0,P2,38.33,P6,-375.6,P79,3.267,P2,414.1,P6,1015.,P8
10107,C94,,21.4%,Min,-53.45,P93,-3.772,P3,-414.1,P6,13.77,P92,-1015.,P8,-2.823,P3,179.0,P2,375.6,P79
10107,C94,,25.0%,Max,52.91,P76,3.691,P2,-174.3,P2,38.33,P6,-450.0,P79,3.127,P2,407.8,P6,1177.,P8
10107,C94,,25.0%,Min,-53.45,P93,-3.772,P3,-407.8,P6,13.77,P92,-1177.,P8,-2.651,P3,174.3,P2,450.0,P79
10107,C94,,28.6%,Max,52.91,P76,3.691,P2,-169.7,P2,38.33,P6,-522.5,P79,2.986,P2,401.5,P6,1337.,P8
10107,C94,,28.6%,Min,-53.45,P93,-3.772,P3,-401.5,P6,13.77,P92,-1337.,P8,-2.478,P3,169.7,P2,522.5,P79
10107,C94,,28.6%,Max,67.07,P76,2.216,P2,-111.3,P2,18.00,P8,-532.3,P79,2.264,P76,258.7,P8,1360.,P8
10107,C94,,28.6%,Min,-74.36,P93,-1.918,P3,-258.7,P8,6.346,P79,-1360.,P8,-1.586,P3,111.3,P2,532.3,P79
10107,C94,,32.1%,Max,67.07,P76,2.216,P2,-106.6,P2,18.00,P8,-578.2,P79,2.136,P2,252.4,P8,1461.,P8
10107,C94,,32.1%,Min,-74.36,P93,-1.918,P3,-252.4,P8,6.346,P79,-1461.,P8,-1.632,P3,106.6,P2,578.2,P79
10107,C94,,35.7%,Max,67.07,P76,2.216,P2,-102.0,P2,18.00,P8,-622.3,P79,2.065,P2,246.1,P8,1559.,P8
10107,C94,,35.7%,Min,-74.36,P93,-1.918,P3,-246.1,P8,6.346,P79,-1559.,P8,-1.678,P3,102.0,P2,622.3,P79
10107,C94,,39.3%,Max,67.07,P76,2.216,P2,-97.29,P2,18.00,P8,-664.5,P79,1.993,P2,239.8,P8,1656.,P8
10107,C94,,39.3%,Min,-74.36,P93,-1.918,P3,-239.8,P8,6.346,P79,-1656.,P8,-1.725,P3,97.32,P2,664.5,P79
10107,C94,,42.9%,Max,67.07,P76,2.216,P2,-92.64,P2,18.00,P8,-704.9,P79,1.921,P2,233.6,P8,1749.,P8
10107,C94,,42.9%,Min,-74.36,P93,-1.918,P3,-233.6,P8,6.346,P79,-1749.,P8,-1.771,P3,92.66,P2,704.9,P79
10107,C94,,42.9%,Max,66.49,P79,1.753,P2,-65.52,P4,21.78,P8,-710.8,P79,2.003,P2,150.5,P6,1763.,P8
10107,C94,,42.9%,Min,-79.51,P9,-1.135,P3,-150.5,P6,9.397,P5,-1763.,P8,-1.209,P3,65.54,P4,710.8,P79
10107,C94,,46.4%,Max,66.49,P79,1.753,P2,-60.86,P4,21.78,P8,-740.9,P79,1.851,P2,144.2,P6,1820.,P8
10107,C94,,46.4%,Min,-79.51,P9,-1.135,P3,-144.2,P6,9.397,P5,-1820.,P8,-1.302,P3,60.88,P4,740.9,P79
10107,C94,,50.0%,Max,66.49,P79,1.753,P2,-56.20,P4,21.78,P8,-769.2,P79,1.700,P2,137.9,P6,1874.,P8
10107,C94,,50.0%,Min,-79.51,P9,-1.135,P3,-137.9,P6,9.397,P5,-1874.,P8,-1.395,P3,56.23,P4,769.2,P79
10107,C94,,53.6%,Max,66.49,P79,1.753,P2,-51.54,P4,21.78,P8,-795.6,P79,1.548,P2,131.6,P6,1927.,P8
10107,C94,,53.6%,Min,-79.51,P9,-1.135,P3,-131.6,P6,9.397,P5,-1927.,P8,-1.488,P3,51.57,P4,795.6,P79
10107,C94,,57.1%,Max,66.49,P79,1.753,P2,-46.88,P4,21.78,P8,-820.2,P79,1.397,P2,125.3,P6,1976.,P8
10107,C94,,57.1%,Min,-79.51,P9,-1.135,P3,-125.3,P6,9.397,P5,-1976.,P8,-1.581,P3,46.91,P4,820.2,P79
10107,C94,,57.1%,Max,61.94,P79,2.257,P2,-3.298,P4,13.17,P8,-822.3,P79,2.559,P2,13.99,P5,1980.,P8
10107,C94,,57.1%,Min,-80.82,P9,-1.399,P3,-13.94,P5,2.732,P79,-1980.,P8,-1.696,P3,3.869,P8,822.3,P79
10107,C94,,60.7%,Max,61.94,P79,2.257,P2,2.430,P8,13.17,P8,-826.1,P79,2.212,P2,9.358,P5,1981.,P8
10107,C94,,60.7%,Min,-80.82,P9,-1.399,P3,-9.277,P5,2.732,P79,-1981.,P8,-1.688,P3,0.2681,P20,826.1,P79
10107,C94,,64.3%,Max,61.94,P79,2.257,P2,8.719,P8,13.17,P8,-828.1,P79,1.866,P2,8.723,P8,1978.,P8
10107,C94,,64.3%,Min,-80.82,P9,-1.399,P3,-4.618,P5,2.732,P79,-1978.,P8,-1.681,P3,0.3206,P85,828.1,P79
10107,C94,,67.9%,Max,61.94,P79,2.257,P2,15.01,P8,13.17,P8,-828.3,P79,1.519,P2,15.01,P8,1974.,P8
10107,C94,,67.9%,Min,-80.82,P9,-1.399,P3,0.04097,P5,2.732,P79,-1974.,P8,-1.674,P3,1.233,P5,828.3,P79
10107,C94,,71.4%,Max,61.94,P79,2.257,P2,21.30,P8,13.17,P8,-826.6,P79,1.172,P2,21.30,P8,1967.,P8
10107,C94,,71.4%,Min,-80.82,P9,-1.399,P3,4.700,P5,2.732,P79,-1967.,P8,-1.667,P3,4.859,P5,826.6,P79
10107,C94,,71.4%,Max,55.45,P79,4.390,P2,125.0,P8,12.12,P9,-824.8,P79,3.843,P2,125.0,P8,1961.,P8
10107,C94,,71.4%,Min,-80.10,P9,-2.929,P3,40.37,P79,2.519,P79,-1961.,P8,-2.727,P3,40.41,P79,824.9,P79
10107,C94,,75.0%,Max,55.45,P79,4.390,P2,131.3,P8,12.12,P9,-807.9,P79,3.418,P2,131.3,P8,1911.,P8
10107,C94,,75.0%,Min,-80.10,P9,-2.929,P3,45.03,P79,2.519,P79,-1911.,P8,-2.880,P3,45.06,P79,807.9,P79
10107,C94,,78.6%,Max,55.45,P79,4.390,P2,137.6,P8,12.12,P9,-789.2,P79,2.993,P2,137.6,P8,1858.,P8
10107,C94,,78.6%,Min,-80.10,P9,-2.929,P3,49.69,P79,2.519,P79,-1858.,P8,-3.034,P3,49.72,P79,789.2,P79
10107,C94,,82.1%,Max,55.45,P79,4.390,P2,143.9,P8,12.12,P9,-768.6,P79,2.569,P2,143.9,P8,1802.,P8
10107,C94,,82.1%,Min,-80.10,P9,-2.929,P3,54.35,P79,2.519,P79,-1802.,P8,-3.188,P3,54.38,P79,768.6,P79
10107,C94,,85.7%,Max,55.45,P79,4.390,P2,150.1,P8,12.12,P9,-746.2,P79,2.144,P2,150.1,P8,1744.,P8
10107,C94,,85.7%,Min,-80.10,P9,-2.929,P3,59.00,P79,2.519,P79,-1744.,P8,-3.342,P3,59.03,P79,746.2,P79
10107,C94,,85.7%,Max,49.40,P79,15.68,P2,257.8,P8,7.309,P9,-740.3,P79,8.924,P2,257.8,P8,1729.,P8
10107,C94,,85.7%,Min,-78.83,P9,-10.80,P3,94.95,P3,-0.7196,P79,-1729.,P8,-6.342,P3,95.57,P3,740.3,P79
10107,C94,,89.3%,Max,49.40,P79,15.68,P2,264.1,P8,7.309,P9,-699.1,P79,9.398,P2,264.1,P8,1626.,P8
10107,C94,,89.3%,Min,-78.83,P9,-10.80,P3,99.61,P3,-0.7196,P79,-1626.,P8,-8.748,P3,100.2,P3,699.1,P79
10107,C94,,92.9%,Max,49.40,P79,15.68,P2,270.4,P8,7.309,P9,-656.0,P79,9.872,P2,270.4,P8,1520.,P8
10107,C94,,92.9%,Min,-78.83,P9,-10.80,P3,104.3,P3,-0.7196,P79,-1520.,P8,-11.15,P3,104.8,P3,656.0,P79
10107,C94,,96.4%,Max,49.40,P79,15.68,P2,276.7,P8,7.309,P9,-611.0,P79,10.35,P2,276.7,P8,1412.,P8
10107,C94,,96.4%,Min,-78.83,P9,-10.80,P3,108.9,P3,-0.7196,P79,-1412.,P8,-13.56,P3,109.5,P3,611.0,P79
10107,C94,6244,100.0%,Max,49.40,P79,15.68,P2,283.0,P8,7.309,P9,-564.2,P79,10.82,P2,283.0,P8,1301.,P8
10107,C94,6244,100.0%,Min,-78.83,P9,-10.80,P3,113.6,P3,-0.7196,P79,-1301.,P8,-15.96,P3,114.1,P3,564.3,P79
10108,C94,5987,0.0%,Max,-40.26,P2,13.83,P2,-447.6,P78,-13.58,P78,1143.,P8,22.43,P2,1123.,P8,1143.,P8
10108,C94,5987,0.0%,Min,-222.3,P6,-18.58,P3,-1123.,P8,-121.8,P9,442.8,P3,-35.41,P3,447.6,P78,444.2,P3
10108,C94,,2.1%,Max,-40.26,P2,13.83,P2,-438.0,P78,-13.58,P78,690.1,P8,18.66,P2,1110.,P8,690.2,P8
10108,C94,,2.1%,Min,-222.3,P6,-18.58,P3,-1110.,P8,-121.8,P9,202.9,P3,-29.71,P3,438.0,P78,205.0,P3
10108,C94,,4.2%,Max,-40.26,P2,13.83,P2,-428.5,P78,-13.58,P78,299.8,P2,14.89,P2,1098.,P8,300.1,P2
10108,C94,,4.2%,Min,-222.3,P6,-18.58,P3,-1098.,P8,-121.8,P9,-33.17,P3,-24.01,P3,428.5,P78,20.27,P5
10108,C94,,6.3%,Max,-40.26,P2,13.83,P2,-418.9,P78,-13.58,P78,63.96,P2,11.12,P2,1085.,P8,266.0,P3
10108,C94,,6.3%,Min,-222.3,P6,-18.58,P3,-1085.,P8,-121.8,P9,-265.4,P3,-18.31,P3,419.0,P78,36.80,P4
10108,C94,,8.4%,Max,-40.26,P2,13.83,P2,-409.4,P78,-13.58,P78,-168.0,P2,7.348,P2,1072.,P8,637.9,P8
10108,C94,,8.4%,Min,-222.3,P6,-18.58,P3,-1072.,P8,-121.8,P9,-637.9,P8,-12.61,P3,409.4,P78,168.1,P2
10108,C94,,8.4%,Max,21.29,P2,20.07,P2,-381.8,P78,-18.09,P78,-187.4,P2,4.841,P2,991.5,P8,677.6,P8
10108,C94,,8.4%,Min,-213.4,P3,-30.03,P3,-991.4,P8,-128.3,P9,-677.5,P8,-13.98,P3,382.2,P78,187.4,P2
10108,C94,,10.5%,Max,21.29,P2,20.07,P2,-372.2,P78,-18.09,P78,-374.0,P2,12.52,P2,978.6,P8,1077.,P8
10108,C94,,10.5%,Min,-213.4,P3,-30.03,P3,-978.5,P8,-128.3,P9,-1077.,P8,-17.61,P3,372.6,P78,374.2,P2
10108,C94,,12.6%,Max,21.29,P2,20.07,P2,-362.7,P78,-18.09,P78,-552.1,P74,20.19,P2,965.7,P8,1471.,P8
10108,C94,,12.6%,Min,-213.4,P3,-30.03,P3,-965.6,P8,-128.3,P9,-1471.,P8,-21.25,P3,363.1,P78,552.1,P74
10108,C94,,14.7%,Max,21.29,P2,20.07,P2,-353.1,P78,-18.09,P78,-697.9,P74,27.86,P2,952.8,P8,1861.,P8
10108,C94,,14.7%,Min,-213.4,P3,-30.03,P3,-952.7,P8,-128.3,P9,-1861.,P8,-24.88,P3,353.5,P78,698.0,P74
10108,C94,,16.8%,Max,21.29,P2,20.07,P2,-343.6,P78,-18.09,P78,-839.8,P74,35.54,P2,939.9,P8,2244.,P8
10108,C94,,16.8%,Min,-213.4,P3,-30.03,P3,-939.8,P8,-128.3,P9,-2244.,P8,-28.51,P3,344.0,P78,840.1,P74
10108,C94,,16.8%,Max,103.7,P2,10.54,P2,-319.4,P2,17.65,P4,-842.8,P74,10.58,P2,771.7,P6,2253.,P8
10108,C94,,16.8%,Min,-278.4,P3,-23.08,P3,-771.6,P6,-34.33,P78,-2253.,P8,-23.69,P7,319.6,P2,843.1,P74
10108,C94,,18.8%,Max,103.7,P2,10.54,P2,-310.3,P2,17.65,P4,-989.4,P74,15.27,P2,759.4,P6,2545.,P8
10108,C94,,18.8%,Min,-278.4,P3,-23.08,P3,-759.2,P6,-34.33,P78,-2545.,P8,-22.79,P3,310.5,P2,989.6,P74
10108,C94,,20.8%,Max,103.7,P2,10.54,P2,-301.1,P2,17.65,P4,-1132.,P74,19.96,P2,747.0,P6,2833.,P8
10108,C94,,20.8%,Min,-278.4,P3,-23.08,P3,-746.9,P6,-34.33,P78,-2833.,P8,-22.61,P3,301.3,P2,1133.,P74
10108,C94,,22.9%,Max,103.7,P2,10.54,P2,-292.0,P2,17.65,P4,-1272.,P74,24.65,P2,734.7,P6,3116.,P8
10108,C94,,22.9%,Min,-278.4,P3,-23.08,P3,-734.5,P6,-34.33,P78,-3116.,P8,-22.42,P3,292.2,P2,1272.,P74
10108,C94,,24.9%,Max,103.7,P2,10.54,P2,-282.9,P2,17.65,P4,-1408.,P74,29.34,P2,722.3,P6,3395.,P8
10108,C94,,24.9%,Min,-278.4,P3,-23.08,P3,-722.2,P6,-34.33,P78,-3395.,P8,-22.24,P3,283.0,P2,1408.,P74
10108,C94,,24.9%,Max,173.3,P2,0.9860,P4,-256.9,P2,11.04,P85,-1420.,P74,20.92,P2,652.1,P6,3420.,P8
10108,C94,,24.9%,Min,-343.4,P3,-13.44,P12,-652.0,P6,-44.11,P7,-3420.,P8,-21.08,P3,256.9,P2,1420.,P74
10108,C94,,26.9%,Max,173.3,P2,0.9860,P4,-247.8,P2,11.04,P85,-1542.,P74,24.02,P2,639.8,P6,3665.,P8
10108,C94,,26.9%,Min,-343.4,P3,-13.44,P12,-639.7,P6,-44.11,P7,-3665.,P8,-19.56,P3,247.8,P2,1542.,P74
10108,C94,,28.9%,Max,173.3,P2,0.9860,P4,-238.6,P2,11.04,P85,-1661.,P74,27.12,P2,627.4,P6,3906.,P8
10108,C94,,28.9%,Min,-343.4,P3,-13.44,P12,-627.3,P6,-44.11,P7,-3906.,P8,-18.03,P3,238.6,P2,1661.,P74
10108,C94,,30.9%,Max,173.3,P2,0.9860,P4,-229.5,P2,11.04,P85,-1776.,P74,30.21,P2,615.1,P6,4142.,P8
10108,C94,,30.9%,Min,-343.4,P3,-13.44,P12,-615.0,P6,-44.11,P7,-4142.,P8,-16.51,P3,229.5,P2,1776.,P74
10108,C94,,32.9%,Max,173.3,P2,0.9860,P4,-220.3,P2,11.04,P85,-1887.,P74,33.31,P2,602.7,P6,4373.,P8
10108,C94,,32.9%,Min,-343.4,P3,-13.44,P12,-602.6,P6,-44.11,P7,-4373.,P8,-14.99,P3,220.3,P2,1887.,P74
10108,C94,,32.9%,Max,264.8,P2,13.98,P2,-52.27,P2,7.843,P2,-1899.,P74,29.43,P2,186.3,P6,4390.,P8
10108,C94,,32.9%,Min,-423.0,P3,-14.19,P3,-186.2,P6,-0.2055,P3,-4390.,P8,-24.59,P3,54.11,P2,1899.,P74
10108,C94,,35.1%,Max,264.8,P2,13.98,P2,-42.62,P2,7.843,P2,-1940.,P74,28.58,P2,173.2,P6,4461.,P8
10108,C94,,35.1%,Min,-423.0,P3,-14.19,P3,-173.2,P6,-0.2055,P3,-4461.,P8,-23.65,P3,44.85,P2,1940.,P74
10108,C94,,37.2%,Max,264.8,P2,13.98,P2,-32.96,P2,7.843,P2,-1971.,P4,27.74,P2,160.2,P6,4527.,P8
10108,C94,,37.2%,Min,-423.0,P3,-14.19,P3,-160.2,P6,-0.2055,P3,-4527.,P8,-22.71,P3,35.80,P2,1971.,P4
10108,C94,,39.3%,Max,264.8,P2,13.98,P2,-23.31,P2,7.843,P2,-1996.,P4,26.89,P2,147.2,P6,4587.,P8
10108,C94,,39.3%,Min,-423.0,P3,-14.19,P3,-147.1,P6,-0.2055,P3,-4587.,P8,-21.78,P3,27.18,P2,1996.,P4
10108,C94,,41.4%,Max,264.8,P2,13.98,P2,-13.65,P2,7.843,P2,-2016.,P4,26.04,P2,134.1,P6,4642.,P8
10108,C94,,41.4%,Min,-423.0,P3,-14.19,P3,-134.1,P6,-0.2055,P3,-4642.,P8,-20.84,P3,19.54,P2,2016.,P4
10108,C94,,41.4%,Max,332.8,P2,12.42,P2,-6.077,P2,8.838,P8,-2018.,P4,27.25,P2,100.5,P3,4646.,P8
10108,C94,,41.4%,Min,-476.9,P3,-13.61,P3,-99.61,P3,1.037,P3,-4646.,P8,-25.25,P3,13.83,P2,2018.,P4
10108,C94,,43.6%,Max,332.8,P2,12.42,P2,3.578,P2,8.838,P8,-2032.,P4,25.16,P2,90.98,P3,4681.,P8
10108,C94,,43.6%,Min,-476.9,P3,-13.61,P3,-89.96,P3,1.037,P3,-4681.,P8,-22.67,P3,11.97,P4,2032.,P4
10108,C94,,45.7%,Max,332.8,P2,12.42,P2,13.23,P2,8.838,P8,-2041.,P4,23.07,P2,81.45,P3,4711.,P8
10108,C94,,45.7%,Min,-476.9,P3,-13.61,P3,-80.30,P3,1.037,P3,-4711.,P8,-20.09,P3,11.96,P4,2041.,P4
10108,C94,,47.8%,Max,332.8,P2,12.42,P2,22.89,P2,8.838,P8,-2046.,P4,20.98,P2,71.95,P3,4735.,P8
10108,C94,,47.8%,Min,-476.9,P3,-13.61,P3,-70.65,P3,1.037,P3,-4735.,P8,-17.51,P3,11.33,P91,2047.,P4
10108,C94,,49.9%,Max,332.8,P2,12.42,P2,32.54,P2,8.838,P8,-2048.,P4,18.89,P2,62.49,P3,4754.,P8
10108,C94,,49.9%,Min,-476.9,P3,-13.61,P3,-60.99,P3,1.037,P3,-4754.,P8,-14.93,P3,3.241,P91,2048.,P4
10108,C94,,49.9%,Max,402.0,P2,12.72,P2,328.1,P31,-10.30,P78,-2043.,P4,28.54,P2,328.1,P31,4740.,P8
10108,C94,,49.9%,Min,-528.2,P3,-15.42,P3,120.9,P5,-30.71,P8,-4740.,P8,-31.29,P3,121.7,P5,2043.,P4
10108,C94,,52.0%,Max,402.0,P2,12.72,P2,341.0,P31,-10.30,P78,-1989.,P4,26.57,P2,341.0,P31,4605.,P8
10108,C94,,52.0%,Min,-528.2,P3,-15.42,P3,130.5,P5,-30.71,P8,-4605.,P8,-28.23,P3,131.2,P5,1989.,P4
10108,C94,,54.1%,Max,402.0,P2,12.72,P2,353.8,P31,-10.30,P78,-1931.,P4,24.61,P2,353.8,P31,4465.,P8
10108,C94,,54.1%,Min,-528.2,P3,-15.42,P3,140.0,P5,-30.71,P8,-4465.,P8,-25.17,P3,140.7,P5,1931.,P4
10108,C94,,56.2%,Max,402.0,P2,12.72,P2,366.7,P31,-10.30,P78,-1869.,P4,22.64,P2,366.7,P31,4319.,P8
10108,C94,,56.2%,Min,-528.2,P3,-15.42,P3,149.5,P5,-30.71,P8,-4319.,P8,-22.11,P3,150.2,P5,1870.,P4
10108,C94,,58.3%,Max,402.0,P2,12.72,P2,379.6,P31,-10.30,P78,-1802.,P2,20.67,P2,379.6,P31,4168.,P8
10108,C94,,58.3%,Min,-528.2,P3,-15.42,P3,159.1,P5,-30.71,P8,-4168.,P8,-19.05,P3,159.7,P5,1802.,P2
10108,C94,,58.3%,Max,445.2,P2,16.13,P2,425.7,P8,-13.55,P78,-1794.,P2,26.93,P2,425.7,P8,4152.,P8
10108,C94,,58.3%,Min,-558.5,P3,-19.41,P3,169.0,P5,-37.09,P8,-4152.,P8,-28.49,P3,169.7,P5,1794.,P2
10108,C94,,60.4%,Max,445.2,P2,16.13,P2,438.6,P8,-13.55,P78,-1715.,P2,24.12,P2,438.6,P8,3977.,P8
10108,C94,,60.4%,Min,-558.5,P3,-19.41,P3,178.6,P5,-37.09,P8,-3977.,P8,-24.36,P3,179.2,P5,1715.,P2
10108,C94,,62.5%,Max,445.2,P2,16.13,P2,451.4,P8,-13.55,P78,-1632.,P2,21.31,P2,451.4,P8,3796.,P8
10108,C94,,62.5%,Min,-558.5,P3,-19.41,P3,188.1,P5,-37.09,P8,-3796.,P8,-20.22,P3,188.7,P5,1632.,P2
10108,C94,,64.6%,Max,445.2,P2,16.13,P2,464.3,P8,-13.55,P78,-1545.,P2,18.50,P2,464.3,P8,3611.,P8
10108,C94,,64.6%,Min,-558.5,P3,-19.41,P3,197.7,P5,-37.09,P8,-3611.,P8,-16.08,P3,198.2,P5,1545.,P2
10108,C94,,66.7%,Max,445.2,P2,16.13,P2,477.2,P8,-13.55,P78,-1455.,P2,16.69,P4,477.2,P8,3420.,P8
10108,C94,,66.7%,Min,-558.5,P3,-19.41,P3,207.2,P5,-37.09,P8,-3420.,P8,-12.95,P5,207.8,P5,1455.,P2
10108,C94,,66.7%,Max,480.4,P2,16.28,P2,756.6,P31,77.76,P6,-1441.,P2,33.41,P2,756.6,P31,3389.,P8
10108,C94,,66.7%,Min,-578.5,P3,-22.09,P3,310.7,P5,18.65,P82,-3389.,P8,-39.69,P3,311.2,P5,1441.,P2
10108,C94,,68.8%,Max,480.4,P2,16.28,P2,769.1,P31,77.76,P6,-1312.,P2,29.55,P2,769.1,P31,3090.,P8
10108,C94,,68.8%,Min,-578.5,P3,-22.09,P3,320.0,P5,18.65,P82,-3090.,P8,-33.53,P3,320.5,P5,1312.,P2
10108,C94,,70.8%,Max,480.4,P2,16.28,P2,781.6,P31,77.76,P6,-1178.,P2,25.68,P2,781.6,P31,2786.,P8
10108,C94,,70.8%,Min,-578.5,P3,-22.09,P3,329.3,P5,18.65,P82,-2786.,P8,-27.37,P3,329.7,P5,1179.,P2
10108,C94,,72.9%,Max,480.4,P2,16.28,P2,794.2,P31,77.76,P6,-1039.,P79,21.81,P2,794.2,P31,2478.,P8
10108,C94,,72.9%,Min,-578.5,P3,-22.09,P3,338.5,P5,18.65,P82,-2478.,P8,-21.22,P3,339.0,P5,1039.,P79
10108,C94,,74.9%,Max,480.4,P2,16.28,P2,806.7,P31,77.76,P6,-888.9,P79,17.95,P2,806.7,P31,2164.,P8
10108,C94,,74.9%,Min,-578.5,P3,-22.09,P3,347.8,P5,18.65,P82,-2164.,P8,-15.06,P3,348.2,P5,888.9,P79
10108,C94,,74.9%,Max,494.5,P2,20.46,P2,895.0,P31,60.43,P7,-873.2,P79,27.55,P2,895.0,P31,2131.,P8
10108,C94,,74.9%,Min,-582.6,P3,-25.97,P3,379.4,P5,9.916,P82,-2131.,P8,-29.81,P3,379.9,P5,873.4,P79
10108,C94,,76.9%,Max,494.5,P2,20.46,P2,907.5,P31,60.43,P7,-706.6,P79,25.24,P2,907.5,P31,1777.,P8
10108,C94,,76.9%,Min,-582.6,P3,-25.97,P3,388.7,P5,9.916,P82,-1777.,P8,-25.32,P3,389.1,P5,706.7,P79
10108,C94,,79.0%,Max,494.5,P2,20.46,P2,920.0,P31,60.43,P7,-536.2,P79,22.92,P2,920.0,P31,1418.,P8
10108,C94,,79.0%,Min,-582.6,P3,-25.97,P3,397.9,P5,9.916,P82,-1418.,P8,-20.83,P3,398.4,P5,536.3,P79
10108,C94,,81.0%,Max,494.5,P2,20.46,P2,932.5,P31,60.43,P7,-362.3,P79,20.61,P2,932.5,P31,1053.,P8
10108,C94,,81.0%,Min,-582.6,P3,-25.97,P3,407.2,P5,9.916,P82,-1053.,P8,-16.34,P3,407.7,P5,362.3,P79
10108,C94,,83.1%,Max,494.5,P2,20.46,P2,945.0,P31,60.43,P7,-184.7,P79,18.29,P2,945.0,P31,684.4,P8
10108,C94,,83.1%,Min,-582.6,P3,-25.97,P3,416.5,P5,9.916,P82,-684.4,P8,-11.85,P3,416.9,P5,184.7,P79
10108,C94,,83.1%,Max,477.6,P2,22.36,P2,1235.,P8,177.9,P8,-190.7,P79,38.50,P2,1235.,P8,693.7,P8
10108,C94,,83.1%,Min,-558.2,P3,-34.29,P3,478.3,P79,48.10,P79,-693.7,P8,-49.16,P3,478.7,P79,193.3,P79
10108,C94,,85.2%,Max,477.6,P2,22.36,P2,1248.,P8,177.9,P8,44.58,P4,33.08,P2,1248.,P8,221.0,P3
10108,C94,,85.2%,Min,-558.2,P3,-34.29,P3,487.9,P79,48.10,P79,-217.6,P5,-38.87,P3,488.3,P79,19.45,P55
10108,C94,,87.3%,Max,477.6,P2,22.36,P2,1261.,P8,177.9,P8,367.1,P6,27.66,P2,1261.,P8,367.2,P6
10108,C94,,87.3%,Min,-558.2,P3,-34.29,P3,497.6,P79,48.10,P79,42.66,P5,-28.57,P3,497.9,P79,47.97,P5
10108,C94,,89.4%,Max,477.6,P2,22.36,P2,1274.,P8,177.9,P8,862.3,P31,22.25,P2,1274.,P8,862.3,P31
10108,C94,,89.4%,Min,-558.2,P3,-34.29,P3,507.2,P79,48.10,P79,306.9,P5,-18.28,P3,507.5,P79,307.3,P5
10108,C94,,91.5%,Max,477.6,P2,22.36,P2,1287.,P8,177.9,P8,1368.,P8,17.31,P4,1287.,P8,1368.,P8
10108,C94,,91.5%,Min,-558.2,P3,-34.29,P3,516.8,P79,48.10,P79,575.1,P5,-8.469,P5,517.1,P79,575.1,P5
10108,C94,,91.5%,Max,417.1,P2,27.71,P2,1311.,P8,165.7,P8,1427.,P8,21.29,P2,1311.,P8,1427.,P8
10108,C94,,91.5%,Min,-495.8,P3,-43.84,P3,524.4,P79,42.39,P79,601.7,P5,-22.94,P3,524.8,P79,601.9,P5
10108,C94,,93.6%,Max,417.1,P2,27.71,P2,1324.,P8,165.7,P8,1965.,P8,29.34,P2,1324.,P8,1965.,P8
10108,C94,,93.6%,Min,-495.8,P3,-43.84,P3,534.0,P79,42.39,P79,841.0,P5,-24.40,P3,534.4,P79,841.2,P5
10108,C94,,95.8%,Max,417.1,P2,27.71,P2,1337.,P8,165.7,P8,2508.,P8,37.40,P2,1337.,P8,2508.,P8
10108,C94,,95.8%,Min,-495.8,P3,-43.84,P3,543.6,P79,42.39,P79,1079.,P76,-25.87,P3,544.0,P79,1079.,P76
10108,C94,,97.9%,Max,417.1,P2,27.71,P2,1350.,P8,165.7,P8,3057.,P8,45.45,P2,1350.,P8,3057.,P8
10108,C94,,97.9%,Min,-495.8,P3,-43.84,P3,553.2,P79,42.39,P79,1306.,P78,-27.33,P3,553.6,P79,1306.,P78
10108,C94,4790,100.0%,Max,417.1,P2,27.71,P2,1363.,P8,165.7,P8,3611.,P8,53.50,P2,1363.,P8,3611.,P8
10108,C94,4790,100.0%,Min,-495.8,P3,-43.84,P3,562.9,P79,42.39,P79,1534.,P78,-28.79,P3,563.2,P79,1534.,P78
10109,C94,7664,0.0%,Max,55.95,P2,0.7089,P4,-23.78,P2,-0.7051,P67,99.08,P8,0.6672,P2,52.76,P8,99.08,P8
10109,C94,7664,0.0%,Min,-47.59,P3,-0.2866,P5,-52.76,P8,-1.926,P23,40.92,P3,-0.4492,P3,23.79,P2,40.92,P3
10109,C94,,25.0%,Max,55.95,P2,0.7089,P4,-21.83,P2,-0.7051,P67,75.35,P8,0.5161,P2,50.12,P8,75.36,P8
10109,C94,,25.0%,Min,-47.59,P3,-0.2866,P5,-50.12,P8,-1.926,P23,30.40,P3,-0.4929,P3,21.84,P2,30.40,P3
10109,C94,,50.0%,Max,55.95,P2,0.7089,P4,-19.88,P2,-0.7051,P67,52.84,P8,0.3855,P4,47.48,P8,52.84,P8
10109,C94,,50.0%,Min,-47.59,P3,-0.2866,P5,-47.48,P8,-1.926,P23,20.78,P3,-0.5570,P5,19.89,P2,20.78,P3
10109,C94,,75.0%,Max,55.95,P2,0.7089,P4,-17.92,P2,-0.7051,P67,31.57,P30,0.2646,P4,44.84,P8,31.57,P30
10109,C94,,75.0%,Min,-47.59,P3,-0.2866,P5,-44.84,P8,-1.926,P23,12.05,P3,-0.6309,P5,17.93,P2,12.07,P3
10109,C94,7665,100.0%,Max,55.95,P2,0.7089,P4,-15.97,P2,-0.7051,P67,11.53,P31,0.1437,P4,42.21,P8,11.54,P31
10109,C94,7665,100.0%,Min,-47.59,P3,-0.2866,P5,-42.20,P8,-1.926,P23,4.236,P3,-0.7048,P5,15.98,P2,4.281,P3
10110,C94,6073,0.0%,Max,45.88,P78,15.10,P2,8.520,P83,5.849,P8,-620.8,P79,14.51,P2,17.24,P2,1393.,P8
10110,C94,6073,0.0%,Min,-56.53,P9,-14.39,P3,-14.89,P6,2.105,P5,-1393.,P8,-13.71,P3,2.257,P43,620.8,P79
10110,C94,,5.0%,Max,45.88,P78,15.10,P2,11.70,P83,5.849,P8,-621.6,P79,12.32,P2,18.98,P2,1395.,P8
10110,C94,,5.0%,Min,-56.53,P9,-14.39,P3,-10.61,P6,2.105,P5,-1395.,P8,-11.76,P3,3.959,P20,621.7,P79
10110,C94,,10.0%,Max,45.88,P78,15.10,P2,14.87,P83,5.849,P8,-620.0,P4,10.13,P2,21.06,P2,1396.,P8
10110,C94,,10.0%,Min,-56.53,P9,-14.39,P3,-6.320,P6,2.105,P5,-1396.,P8,-9.809,P3,1.174,P20,620.1,P4
10110,C94,,15.0%,Max,45.88,P78,15.10,P2,18.05,P83,5.849,P8,-617.2,P4,7.943,P2,23.38,P2,1395.,P8
10110,C94,,15.0%,Min,-56.53,P9,-14.39,P3,-2.034,P6,2.105,P5,-1395.,P8,-7.858,P3,1.540,P1,617.2,P4
10110,C94,,20.0%,Max,45.88,P78,15.10,P2,21.22,P83,5.849,P8,-613.3,P4,5.755,P2,25.89,P2,1392.,P8
10110,C94,,20.0%,Min,-56.53,P9,-14.39,P3,2.253,P6,2.105,P5,-1392.,P8,-5.907,P3,4.649,P31,613.3,P4
10110,C94,,20.0%,Max,50.81,P79,5.302,P2,86.73,P8,0.2328,P2,-611.3,P4,4.525,P2,86.73,P8,1389.,P8
10110,C94,,20.0%,Min,-59.97,P9,-4.918,P3,37.71,P3,-0.7876,P3,-1389.,P8,-3.938,P3,37.94,P79,611.4,P4
10110,C94,,25.0%,Max,50.81,P79,5.302,P2,91.02,P8,0.2328,P2,-597.7,P4,4.088,P2,91.02,P8,1359.,P8
10110,C94,,25.0%,Min,-59.97,P9,-4.918,P3,40.89,P3,-0.7876,P3,-1359.,P8,-3.632,P3,41.11,P79,597.7,P4
10110,C94,,30.0%,Max,50.81,P79,5.302,P2,95.30,P8,0.2328,P2,-583.1,P4,3.652,P2,95.31,P8,1328.,P8
10110,C94,,30.0%,Min,-59.97,P9,-4.918,P3,44.06,P3,-0.7876,P3,-1328.,P8,-3.325,P3,44.28,P79,583.1,P4
10110,C94,,35.0%,Max,50.81,P79,5.302,P2,99.59,P8,0.2328,P2,-567.3,P4,3.216,P2,99.59,P8,1295.,P8
10110,C94,,35.0%,Min,-59.97,P9,-4.918,P3,47.24,P3,-0.7876,P3,-1295.,P8,-3.018,P3,47.45,P79,567.3,P4
10110,C94,,40.0%,Max,50.81,P79,5.302,P2,103.9,P8,0.2328,P2,-550.5,P4,2.780,P2,103.9,P8,1261.,P8
10110,C94,,40.0%,Min,-59.97,P9,-4.918,P3,50.42,P3,-0.7876,P3,-1261.,P8,-2.711,P3,50.62,P79,550.5,P4
10110,C94,,40.0%,Max,56.85,P79,3.698,P2,211.3,P8,10.08,P8,-545.6,P4,2.820,P2,211.3,P8,1250.,P8
10110,C94,,40.0%,Min,-72.46,P3,-3.278,P3,89.82,P5,3.481,P3,-1250.,P8,-1.837,P3,89.86,P5,545.6,P4
10110,C94,,45.0%,Max,56.85,P79,3.698,P2,215.6,P8,10.08,P8,-514.7,P4,2.775,P2,215.6,P8,1178.,P8
10110,C94,,45.0%,Min,-72.46,P3,-3.278,P3,93.00,P5,3.481,P3,-1178.,P8,-1.934,P3,93.03,P5,514.7,P4
10110,C94,,50.0%,Max,56.85,P79,3.698,P2,219.9,P8,10.08,P8,-482.8,P4,2.731,P2,219.9,P8,1104.,P8
10110,C94,,50.0%,Min,-72.46,P3,-3.278,P3,96.17,P5,3.481,P3,-1104.,P8,-2.030,P3,96.20,P5,482.8,P4
10110,C94,,55.0%,Max,56.85,P79,3.698,P2,224.2,P8,10.08,P8,-449.8,P4,2.686,P2,224.2,P8,1030.,P8
10110,C94,,55.0%,Min,-72.46,P3,-3.278,P3,99.35,P5,3.481,P3,-1030.,P8,-2.127,P3,99.38,P5,449.8,P4
10110,C94,,60.0%,Max,56.85,P79,3.698,P2,228.5,P8,10.08,P8,-415.7,P4,2.641,P2,228.5,P8,953.2,P8
10110,C94,,60.0%,Min,-72.46,P3,-3.278,P3,102.5,P5,3.481,P3,-953.2,P8,-2.224,P3,102.6,P5,415.7,P4
10110,C94,,60.0%,Max,73.08,P2,4.288,P2,337.7,P8,2.008,P2,-410.9,P4,2.634,P2,337.7,P8,942.6,P8
10110,C94,,60.0%,Min,-85.58,P3,-2.688,P3,145.0,P79,-0.09896,P3,-942.6,P8,-0.9204,P3,145.1,P79,410.9,P4
10110,C94,,65.0%,Max,73.08,P2,4.288,P2,342.0,P8,2.008,P2,-361.1,P4,2.662,P2,342.0,P8,827.9,P8
10110,C94,,65.0%,Min,-85.58,P3,-2.688,P3,148.2,P79,-0.09896,P3,-827.9,P8,-1.488,P3,148.2,P79,361.1,P4
10110,C94,,70.0%,Max,73.08,P2,4.288,P2,346.3,P8,2.008,P2,-310.3,P4,2.689,P2,346.3,P8,711.9,P8
10110,C94,,70.0%,Min,-85.58,P3,-2.688,P3,151.4,P79,-0.09896,P3,-711.9,P8,-2.055,P3,151.4,P79,310.3,P4
10110,C94,,75.0%,Max,73.08,P2,4.288,P2,350.6,P8,2.008,P2,-258.4,P4,2.717,P2,350.6,P8,594.3,P8
10110,C94,,75.0%,Min,-85.58,P3,-2.688,P3,154.6,P79,-0.09896,P3,-594.3,P8,-2.622,P3,154.6,P79,258.4,P4
10110,C94,,80.0%,Max,73.08,P2,4.288,P2,354.9,P8,2.008,P2,-205.4,P4,2.745,P2,354.9,P8,475.4,P8
10110,C94,,80.0%,Min,-85.58,P3,-2.688,P3,157.7,P79,-0.09896,P3,-475.4,P8,-3.189,P3,157.8,P79,205.4,P4
10110,C94,,80.0%,Max,85.06,P2,9.632,P2,391.5,P8,-2.398,P2,-191.9,P4,3.765,P2,391.6,P8,444.7,P8
10110,C94,,80.0%,Min,-86.82,P3,-3.812,P3,170.1,P79,-7.635,P6,-444.7,P8,-0.4455,P3,170.2,P79,191.9,P4
10110,C94,,85.0%,Max,85.06,P2,9.632,P2,395.8,P8,-2.398,P2,-131.6,P4,4.013,P2,395.9,P8,311.9,P8
10110,C94,,85.0%,Min,-86.82,P3,-3.812,P3,173.3,P79,-7.635,P6,-311.9,P8,-2.656,P3,173.4,P79,131.6,P4
10110,C94,,90.0%,Max,85.06,P2,9.632,P2,400.1,P8,-2.398,P2,-70.23,P4,4.261,P2,400.1,P8,177.7,P8
10110,C94,,90.0%,Min,-86.82,P3,-3.812,P3,176.5,P79,-7.635,P6,-177.7,P8,-4.868,P3,176.6,P79,70.30,P4
10110,C94,,95.0%,Max,85.06,P2,9.632,P2,404.4,P8,-2.398,P2,-6.504,P2,4.509,P2,404.4,P8,43.60,P3
10110,C94,,95.0%,Min,-86.82,P3,-3.812,P3,179.7,P79,-7.635,P6,-43.02,P3,-7.079,P3,179.7,P79,7.915,P2
10110,C94,7664,100.0%,Max,85.06,P2,9.632,P2,408.7,P8,-2.398,P2,95.15,P33,4.758,P2,408.7,P8,95.23,P33
10110,C94,7664,100.0%,Min,-86.82,P3,-3.812,P3,182.8,P79,-7.635,P6,38.19,P3,-9.290,P3,182.9,P79,39.30,P3
10111,C94,7660,0.0%,Max,14.19,P2,6.554,P2,-20.18,P76,5.492,P23,70.24,P8,5.518,P2,44.11,P8,70.24,P8
10111,C94,7660,0.0%,Min,-22.13,P3,-4.331,P3,-44.10,P8,2.104,P88,29.97,P76,-3.929,P3,20.37,P48,30.08,P76
10111,C94,,25.0%,Max,14.19,P2,6.554,P2,-18.49,P76,5.492,P23,53.07,P8,4.893,P2,41.83,P8,53.07,P8
10111,C94,,25.0%,Min,-22.13,P3,-4.331,P3,-41.82,P8,2.104,P88,22.24,P76,-4.193,P3,18.69,P48,22.28,P76
10111,C94,,50.0%,Max,14.19,P2,6.554,P2,-16.80,P76,5.492,P23,36.81,P8,4.269,P2,39.54,P8,36.82,P8
10111,C94,,50.0%,Min,-22.13,P3,-4.331,P3,-39.53,P8,2.104,P88,15.19,P76,-4.457,P3,17.01,P48,15.19,P76
10111,C94,,75.0%,Max,14.19,P2,6.554,P2,-15.10,P76,5.492,P23,21.47,P8,3.644,P2,37.25,P8,21.48,P8
10111,C94,,75.0%,Min,-22.13,P3,-4.331,P3,-37.25,P8,2.104,P88,8.802,P79,-4.721,P3,15.33,P48,8.910,P54
10111,C94,7661,100.0%,Max,14.19,P2,6.554,P2,-13.41,P76,5.492,P23,7.052,P24,3.020,P2,34.97,P8,7.544,P6
10111,C94,7661,100.0%,Min,-22.13,P3,-4.331,P3,-34.96,P8,2.104,P88,3.028,P55,-4.985,P3,13.65,P40,3.076,P68
10112,C94,6078,0.0%,Max,50.34,P55,19.25,P2,38.45,P7,-13.72,P79,-383.4,P85,19.32,P2,40.32,P7,968.3,P6
10112,C94,6078,0.0%,Min,-89.09,P5,-14.15,P3,4.546,P5,-33.48,P8,-968.2,P6,-14.70,P3,9.951,P5,383.4,P84
10112,C94,,6.3%,Max,50.34,P55,19.25,P2,43.28,P7,-13.72,P79,-378.8,P85,16.19,P2,44.95,P7,953.5,P6
10112,C94,,6.3%,Min,-89.09,P5,-14.15,P3,8.121,P5,-33.48,P8,-953.5,P6,-13.51,P3,12.01,P5,378.8,P85
10112,C94,,12.5%,Max,50.34,P55,19.25,P2,48.10,P7,-13.72,P79,-372.8,P85,13.07,P2,49.61,P7,936.9,P6
10112,C94,,12.5%,Min,-89.09,P5,-14.15,P3,11.70,P5,-33.48,P8,-936.9,P6,-12.33,P3,14.67,P5,372.8,P85
10112,C94,,18.8%,Max,50.34,P55,19.25,P2,52.93,P7,-13.72,P79,-365.5,P85,9.945,P2,54.30,P7,918.5,P6
10112,C94,,18.8%,Min,-89.09,P5,-14.15,P3,15.27,P5,-33.48,P8,-918.5,P6,-11.14,P3,17.65,P5,365.5,P85
10112,C94,,25.0%,Max,50.34,P55,19.25,P2,57.75,P7,-13.72,P79,-356.8,P85,6.820,P2,59.02,P7,898.3,P6
10112,C94,,25.0%,Min,-89.09,P5,-14.15,P3,18.84,P5,-33.48,P8,-898.3,P6,-9.953,P3,20.82,P5,356.8,P85
10112,C94,,25.0%,Max,59.91,P55,7.132,P2,98.29,P6,-8.359,P79,-354.7,P85,6.168,P2,98.33,P6,891.5,P6
10112,C94,,25.0%,Min,-111.5,P5,-6.156,P3,33.35,P5,-19.37,P8,-891.5,P6,-6.231,P3,33.58,P5,354.7,P85
10112,C94,,31.3%,Max,59.91,P55,7.132,P2,103.1,P6,-8.359,P79,-340.6,P85,5.420,P2,103.2,P6,853.3,P6
10112,C94,,31.3%,Min,-111.5,P5,-6.156,P3,36.92,P5,-19.37,P8,-853.3,P6,-5.853,P3,37.13,P5,340.6,P85
10112,C94,,37.5%,Max,59.91,P55,7.132,P2,107.9,P6,-8.359,P79,-325.1,P85,4.672,P2,108.0,P6,813.2,P6
10112,C94,,37.5%,Min,-111.5,P5,-6.156,P3,40.50,P5,-19.37,P8,-813.2,P6,-5.476,P3,40.69,P5,325.1,P85
10112,C94,,43.8%,Max,59.91,P55,7.132,P2,112.8,P6,-8.359,P79,-308.3,P85,3.925,P2,112.8,P6,771.3,P6
10112,C94,,43.8%,Min,-111.5,P5,-6.156,P3,44.07,P5,-19.37,P8,-771.3,P6,-5.098,P3,44.25,P5,308.3,P85
10112,C94,,50.0%,Max,59.91,P55,7.132,P2,117.6,P6,-8.359,P79,-290.2,P85,3.177,P2,117.6,P6,727.6,P6
10112,C94,,50.0%,Min,-111.5,P5,-6.156,P3,47.65,P5,-19.37,P8,-727.6,P6,-4.721,P3,47.81,P5,290.2,P85
10112,C94,,50.0%,Max,62.68,P55,6.331,P2,283.9,P6,-23.08,P55,-285.1,P85,4.766,P2,283.9,P6,713.9,P6
10112,C94,,50.0%,Min,-116.8,P5,-8.192,P3,119.8,P84,-57.16,P8,-713.9,P6,-7.579,P3,119.9,P84,285.1,P85
10112,C94,,56.2%,Max,62.68,P55,6.331,P2,288.7,P6,-23.08,P55,-238.9,P85,4.861,P2,288.7,P6,605.2,P6
10112,C94,,56.2%,Min,-116.8,P5,-8.192,P3,123.4,P84,-57.16,P8,-605.2,P6,-6.967,P3,123.4,P84,238.9,P85
10112,C94,,62.5%,Max,62.68,P55,6.331,P2,293.5,P6,-23.08,P55,-191.4,P85,4.956,P2,293.5,P6,494.7,P6
10112,C94,,62.5%,Min,-116.8,P5,-8.192,P3,126.9,P84,-57.16,P8,-494.7,P6,-6.356,P3,127.0,P84,191.4,P85
10112,C94,,68.7%,Max,62.68,P55,6.331,P2,298.3,P6,-23.08,P55,-142.5,P85,5.051,P2,298.3,P6,382.3,P6
10112,C94,,68.7%,Min,-116.8,P5,-8.192,P3,130.5,P84,-57.16,P8,-382.3,P6,-5.744,P3,130.6,P84,142.5,P85
10112,C94,,75.0%,Max,62.68,P55,6.331,P2,303.2,P6,-23.08,P55,-92.21,P85,5.146,P2,303.2,P6,268.1,P6
10112,C94,,75.0%,Min,-116.8,P5,-8.192,P3,134.1,P84,-57.16,P8,-268.1,P6,-5.132,P3,134.2,P84,92.22,P85
10112,C94,,75.0%,Max,56.20,P4,14.54,P2,289.6,P6,-11.24,P55,-81.40,P85,8.172,P2,289.6,P6,242.1,P6
10112,C94,,75.0%,Min,-90.90,P5,-22.08,P3,116.8,P85,-27.56,P8,-242.1,P6,-12.55,P3,117.5,P85,81.74,P85
10112,C94,,81.2%,Max,56.20,P4,14.54,P2,294.4,P6,-11.24,P55,-36.36,P85,11.38,P2,294.4,P6,131.3,P6
10112,C94,,81.2%,Min,-90.90,P5,-22.08,P3,120.4,P85,-27.56,P8,-131.3,P6,-12.90,P3,121.1,P85,36.45,P85
10112,C94,,87.5%,Max,56.20,P4,14.54,P2,299.2,P6,-11.24,P55,18.85,P2,14.60,P2,299.2,P6,33.23,P3
10112,C94,,87.5%,Min,-90.90,P5,-22.08,P3,124.0,P85,-27.56,P8,-30.47,P3,-13.25,P3,124.6,P85,1.537,P62
10112,C94,,93.7%,Max,56.20,P4,14.54,P2,304.1,P6,-11.24,P55,110.0,P8,17.81,P2,304.1,P6,110.2,P8
10112,C94,,93.7%,Min,-90.90,P5,-22.08,P3,127.6,P85,-27.56,P8,31.37,P79,-13.60,P3,128.2,P85,31.87,P79
10112,C94,7660,100.0%,Max,56.20,P4,14.54,P2,308.9,P6,-11.24,P55,221.6,P8,21.02,P2,308.9,P6,221.8,P8
10112,C94,7660,100.0%,Min,-90.90,P5,-22.08,P3,131.1,P85,-27.56,P8,90.04,P79,-13.96,P3,131.8,P85,90.53,P79
10113,C94,7662,0.0%,Max,41.67,P2,8.773,P2,-41.13,P55,21.04,P8,88.11,P8,6.250,P2,99.02,P8,88.12,P8
10113,C94,7662,0.0%,Min,-18.48,P3,-11.05,P3,-99.02,P8,7.714,P55,36.11,P55,-8.764,P3,41.91,P55,36.63,P55
10113,C94,,25.0%,Max,41.67,P2,8.773,P2,-39.78,P55,21.04,P8,56.76,P8,6.098,P2,97.19,P8,56.76,P8
10113,C94,,25.0%,Min,-18.48,P3,-11.05,P3,-97.19,P8,7.714,P55,23.18,P55,-7.884,P3,40.58,P55,23.45,P55
10113,C94,,50.0%,Max,41.67,P2,8.773,P2,-38.42,P55,21.04,P8,25.99,P8,5.946,P2,95.36,P8,25.99,P8
10113,C94,,50.0%,Min,-18.48,P3,-11.05,P3,-95.36,P8,7.714,P55,8.849,P3,-7.004,P3,39.26,P55,10.73,P55
10113,C94,,75.0%,Max,41.67,P2,8.773,P2,-37.07,P55,21.04,P8,1.638,P2,5.794,P2,93.54,P8,8.944,P3
10113,C94,,75.0%,Min,-18.48,P3,-11.05,P3,-93.53,P8,7.714,P55,-6.517,P3,-6.125,P3,37.93,P55,1.790,P79
10113,C94,7663,100.0%,Max,41.67,P2,8.773,P2,-35.72,P55,21.04,P8,-13.02,P55,5.653,P4,91.71,P8,33.80,P8
10113,C94,7663,100.0%,Min,-18.48,P3,-11.05,P3,-91.71,P8,7.714,P55,-33.80,P8,-5.257,P5,36.61,P55,13.63,P79
10114,C94,6079,0.0%,Max,78.60,P7,12.36,P2,3.642,P85,1.454,P57,-524.3,P4,12.90,P2,26.92,P6,1172.,P8
10114,C94,6079,0.0%,Min,-52.57,P93,-8.666,P3,-26.10,P6,-0.7426,P3,-1172.,P8,-9.566,P3,0.7476,P59,524.4,P4
10114,C94,,5.0%,Max,78.60,P7,12.36,P2,7.002,P85,1.454,P57,-526.5,P4,10.43,P2,22.55,P6,1178.,P8
10114,C94,,5.0%,Min,-52.57,P93,-8.666,P3,-21.56,P6,-0.7426,P3,-1178.,P8,-8.415,P3,0.7981,P66,526.6,P4
10114,C94,,10.0%,Max,78.60,P7,12.36,P2,10.36,P85,1.454,P57,-527.5,P4,7.958,P2,18.26,P6,1182.,P8
10114,C94,,10.0%,Min,-52.57,P93,-8.666,P3,-17.03,P6,-0.7426,P3,-1182.,P8,-7.265,P3,2.584,P43,527.5,P4
10114,C94,,15.0%,Max,78.60,P7,12.36,P2,13.72,P85,1.454,P57,-527.3,P4,5.489,P2,17.64,P2,1185.,P8
10114,C94,,15.0%,Min,-52.57,P93,-8.666,P3,-12.49,P6,-0.7426,P3,-1185.,P8,-6.114,P3,3.173,P9,527.3,P4
10114,C94,,20.0%,Max,78.60,P7,12.36,P2,17.08,P85,1.454,P57,-525.9,P4,3.020,P2,20.18,P2,1185.,P8
10114,C94,,20.0%,Min,-52.57,P93,-8.666,P3,-7.955,P6,-0.7426,P3,-1185.,P8,-4.963,P3,0.2369,P8,525.9,P4
10114,C94,,20.0%,Max,98.30,P7,4.872,P2,61.78,P8,18.30,P8,-524.7,P4,5.046,P2,61.78,P8,1183.,P8
10114,C94,,20.0%,Min,-53.80,P93,-3.854,P3,23.22,P3,7.419,P3,-1183.,P8,-4.192,P3,23.54,P3,524.7,P4
10114,C94,,25.0%,Max,98.30,P7,4.872,P2,66.31,P8,18.30,P8,-515.1,P4,4.166,P2,66.32,P8,1160.,P8
10114,C94,,25.0%,Min,-53.80,P93,-3.854,P3,26.58,P3,7.419,P3,-1160.,P8,-3.675,P3,26.86,P3,515.1,P4
10114,C94,,30.0%,Max,98.30,P7,4.872,P2,70.85,P8,18.30,P8,-504.4,P4,3.286,P2,70.85,P8,1136.,P8
10114,C94,,30.0%,Min,-53.80,P93,-3.854,P3,29.94,P3,7.419,P3,-1136.,P8,-3.158,P3,30.19,P3,504.4,P4
10114,C94,,35.0%,Max,98.30,P7,4.872,P2,75.39,P8,18.30,P8,-492.5,P4,2.406,P2,75.39,P8,1110.,P8
10114,C94,,35.0%,Min,-53.80,P93,-3.854,P3,33.30,P3,7.419,P3,-1110.,P8,-2.641,P3,33.53,P3,492.5,P4
10114,C94,,40.0%,Max,98.30,P7,4.872,P2,79.92,P8,18.30,P8,-479.4,P4,1.525,P2,79.92,P8,1082.,P8
10114,C94,,40.0%,Min,-53.80,P93,-3.854,P3,36.66,P3,7.419,P3,-1082.,P8,-2.125,P3,36.87,P3,479.4,P4
10114,C94,,40.0%,Max,142.7,P2,5.640,P2,194.4,P8,6.328,P33,-473.9,P4,4.700,P2,194.4,P8,1069.,P8
10114,C94,,40.0%,Min,-89.96,P3,-4.671,P3,80.66,P5,1.894,P3,-1069.,P8,-3.403,P3,80.71,P5,473.9,P4
10114,C94,,45.0%,Max,142.7,P2,5.640,P2,198.9,P8,6.328,P33,-444.1,P4,4.343,P2,198.9,P8,999.3,P8
10114,C94,,45.0%,Min,-89.96,P3,-4.671,P3,84.02,P5,1.894,P3,-999.3,P8,-3.392,P3,84.07,P5,444.2,P4
10114,C94,,50.0%,Max,142.7,P2,5.640,P2,203.5,P8,6.328,P33,-413.2,P4,3.986,P2,203.5,P8,927.5,P8
10114,C94,,50.0%,Min,-89.96,P3,-4.671,P3,87.38,P5,1.894,P3,-927.5,P8,-3.380,P3,87.43,P5,413.2,P4
10114,C94,,55.0%,Max,142.7,P2,5.640,P2,208.0,P8,6.328,P33,-381.1,P4,3.629,P2,208.0,P8,854.1,P8
10114,C94,,55.0%,Min,-89.96,P3,-4.671,P3,90.74,P5,1.894,P3,-854.1,P8,-3.369,P3,90.79,P5,381.1,P4
10114,C94,,60.0%,Max,142.7,P2,5.640,P2,212.5,P8,6.328,P33,-347.7,P4,3.272,P2,212.5,P8,779.2,P31
10114,C94,,60.0%,Min,-89.96,P3,-4.671,P3,94.10,P5,1.894,P3,-779.2,P31,-3.357,P3,94.14,P5,347.7,P4
10114,C94,,60.0%,Max,207.4,P2,2.142,P2,401.2,P8,-8.684,P55,-355.2,P4,4.288,P4,401.2,P8,795.1,P8
10114,C94,,60.0%,Min,-145.8,P3,-6.075,P21,168.4,P55,-22.80,P8,-795.1,P8,-2.139,P57,168.4,P55,355.2,P4
10114,C94,,65.0%,Max,207.4,P2,2.142,P2,405.7,P8,-8.684,P55,-289.2,P4,4.575,P4,405.7,P8,653.7,P31
10114,C94,,65.0%,Min,-145.8,P3,-6.075,P21,171.8,P55,-22.80,P8,-653.7,P31,-0.5154,P57,171.8,P55,289.2,P4
10114,C94,,70.0%,Max,207.4,P2,2.142,P2,410.3,P8,-8.684,P55,-221.9,P4,5.031,P2,410.3,P8,511.8,P31
10114,C94,,70.0%,Min,-145.8,P3,-6.075,P21,175.1,P55,-22.80,P8,-511.7,P31,-0.1167,P3,175.1,P55,222.0,P4
10114,C94,,75.0%,Max,207.4,P2,2.142,P2,414.8,P8,-8.684,P55,-153.5,P4,5.688,P33,414.8,P8,368.2,P31
10114,C94,,75.0%,Min,-145.8,P3,-6.075,P21,178.5,P55,-22.80,P8,-368.2,P31,0.1957,P3,178.5,P55,153.6,P4
10114,C94,,80.0%,Max,207.4,P2,2.142,P2,419.3,P8,-8.684,P55,-83.82,P4,7.624,P21,419.3,P8,223.1,P31
10114,C94,,80.0%,Min,-145.8,P3,-6.075,P21,181.8,P55,-22.80,P8,-223.0,P31,0.5081,P3,181.8,P55,84.00,P4
10114,C94,,80.0%,Max,176.7,P2,20.38,P2,304.6,P33,65.99,P8,-85.09,P4,16.48,P2,304.7,P33,220.8,P31
10114,C94,,80.0%,Min,-142.6,P3,-6.837,P3,133.8,P72,25.40,P55,-220.7,P31,-4.854,P3,133.8,P72,86.41,P4
10114,C94,,85.0%,Max,176.7,P2,20.38,P2,309.1,P33,65.99,P8,-28.06,P4,13.90,P2,309.2,P33,111.4,P31
10114,C94,,85.0%,Min,-142.6,P3,-6.837,P3,137.1,P72,25.40,P55,-111.3,P31,-7.104,P3,137.1,P72,30.73,P4
10114,C94,,90.0%,Max,176.7,P2,20.38,P2,313.7,P33,65.99,P8,30.17,P4,11.32,P2,313.8,P33,31.78,P4
10114,C94,,90.0%,Min,-142.6,P3,-6.837,P3,140.5,P72,25.40,P55,-21.06,P5,-9.353,P3,140.5,P72,0.4226,P38
10114,C94,,95.0%,Max,176.7,P2,20.38,P2,318.2,P33,65.99,P8,124.6,P8,8.730,P2,318.3,P33,124.6,P8
10114,C94,,95.0%,Min,-142.6,P3,-6.837,P3,143.9,P72,25.40,P55,38.26,P55,-11.60,P3,143.9,P72,38.26,P55
10114,C94,7662,100.0%,Max,176.7,P2,20.38,P2,322.8,P33,65.99,P8,238.8,P8,6.146,P2,322.9,P33,238.9,P8
10114,C94,7662,100.0%,Min,-142.6,P3,-6.837,P3,147.2,P72,25.40,P55,91.27,P55,-13.85,P3,147.2,P72,91.27,P55
10115,C94,7658,0.0%,Max,42.47,P2,1.750,P2,-27.74,P78,-1.368,P4,126.7,P8,1.656,P2,61.62,P8,126.7,P8
10115,C94,7658,0.0%,Min,-37.83,P3,-0.9647,P3,-61.61,P8,-3.480,P8,53.28,P78,-0.9352,P3,27.76,P78,53.29,P78
10115,C94,,25.0%,Max,42.47,P2,1.750,P2,-25.62,P78,-1.368,P4,96.67,P8,1.495,P2,58.76,P8,96.67,P8
10115,C94,,25.0%,Min,-37.83,P3,-0.9647,P3,-58.76,P8,-3.480,P8,39.95,P78,-1.166,P3,25.65,P78,39.95,P78
10115,C94,,50.0%,Max,42.47,P2,1.750,P2,-23.51,P78,-1.368,P4,68.03,P8,1.333,P2,55.90,P8,68.03,P8
10115,C94,,50.0%,Min,-37.83,P3,-0.9647,P3,-55.90,P8,-3.480,P8,27.68,P78,-1.396,P3,23.53,P78,27.68,P78
10115,C94,,75.0%,Max,42.47,P2,1.750,P2,-21.39,P78,-1.368,P4,40.82,P8,1.172,P2,53.05,P8,40.82,P8
10115,C94,,75.0%,Min,-37.83,P3,-0.9647,P3,-53.04,P8,-3.480,P8,16.47,P78,-1.627,P3,21.42,P78,16.48,P78
10115,C94,7659,100.0%,Max,42.47,P2,1.750,P2,-19.27,P78,-1.368,P4,15.04,P8,1.010,P2,50.19,P8,15.06,P6
10115,C94,7659,100.0%,Min,-37.83,P3,-0.9647,P3,-50.19,P8,-3.480,P8,6.309,P79,-1.858,P3,19.31,P78,6.335,P65
10116,C94,6244,0.0%,Max,42.65,P79,15.38,P2,80.97,P8,4.062,P8,-614.9,P4,16.14,P2,81.01,P8,1390.,P8
10116,C94,6244,0.0%,Min,-73.12,P9,-13.53,P3,32.29,P79,0.9853,P78,-1390.,P8,-14.32,P3,33.25,P79,615.0,P4
10116,C94,,6.3%,Max,42.65,P79,15.38,P2,86.03,P8,4.062,P8,-600.5,P4,13.91,P2,86.06,P8,1356.,P8
10116,C94,,6.3%,Min,-73.12,P9,-13.53,P3,36.04,P79,0.9853,P78,-1356.,P8,-12.83,P3,36.90,P79,600.5,P4
10116,C94,,12.5%,Max,42.65,P79,15.38,P2,91.09,P8,4.062,P8,-584.5,P4,11.68,P2,91.12,P8,1321.,P8
10116,C94,,12.5%,Min,-73.12,P9,-13.53,P3,39.78,P79,0.9853,P78,-1321.,P8,-11.34,P3,40.56,P79,584.6,P4
10116,C94,,18.8%,Max,42.65,P79,15.38,P2,96.14,P8,4.062,P8,-567.1,P4,9.450,P2,96.17,P8,1284.,P8
10116,C94,,18.8%,Min,-73.12,P9,-13.53,P3,43.53,P79,0.9853,P78,-1284.,P8,-9.849,P3,44.24,P79,567.1,P4
10116,C94,,25.0%,Max,42.65,P79,15.38,P2,101.2,P8,4.062,P8,-548.1,P4,7.221,P2,101.2,P8,1245.,P8
10116,C94,,25.0%,Min,-73.12,P9,-13.53,P3,47.28,P79,0.9853,P78,-1245.,P8,-8.359,P3,47.93,P79,548.2,P4
10116,C94,,25.0%,Max,47.41,P55,5.614,P2,144.5,P8,-6.102,P4,-541.8,P4,5.177,P2,144.6,P8,1231.,P8
10116,C94,,25.0%,Min,-73.76,P9,-5.342,P3,60.74,P5,-14.37,P8,-1231.,P8,-5.077,P3,60.85,P5,541.8,P4
10116,C94,,31.3%,Max,47.41,P55,5.614,P2,149.6,P8,-6.102,P4,-516.8,P4,4.747,P2,149.6,P8,1172.,P8
10116,C94,,31.3%,Min,-73.76,P9,-5.342,P3,64.48,P5,-14.37,P8,-1172.,P8,-4.755,P3,64.59,P5,516.8,P4
10116,C94,,37.5%,Max,47.41,P55,5.614,P2,154.7,P8,-6.102,P4,-490.2,P4,4.317,P2,154.7,P8,1112.,P8
10116,C94,,37.5%,Min,-73.76,P9,-5.342,P3,68.23,P5,-14.37,P8,-1112.,P8,-4.433,P3,68.33,P5,490.2,P4
10116,C94,,43.8%,Max,47.41,P55,5.614,P2,159.7,P8,-6.102,P4,-462.2,P4,3.887,P2,159.7,P8,1049.,P8
10116,C94,,43.8%,Min,-73.76,P9,-5.342,P3,71.97,P5,-14.37,P8,-1049.,P8,-4.111,P3,72.07,P5,462.2,P4
10116,C94,,50.0%,Max,47.41,P55,5.614,P2,164.8,P8,-6.102,P4,-432.6,P4,3.457,P2,164.8,P8,984.4,P8
10116,C94,,50.0%,Min,-73.76,P9,-5.342,P3,75.72,P5,-14.37,P8,-984.4,P8,-3.789,P3,75.81,P5,432.6,P4
10116,C94,,50.0%,Max,52.60,P55,4.750,P2,347.2,P8,11.02,P8,-418.3,P4,3.596,P2,347.2,P8,951.6,P8
10116,C94,,50.0%,Min,-78.67,P5,-5.807,P3,148.0,P79,4.245,P54,-951.6,P8,-4.518,P3,148.0,P79,418.3,P4
10116,C94,,56.2%,Max,52.60,P55,4.750,P2,352.2,P8,11.02,P8,-357.8,P4,3.896,P2,352.2,P8,812.4,P8
10116,C94,,56.2%,Min,-78.67,P5,-5.807,P3,151.8,P79,4.245,P54,-812.4,P8,-4.397,P3,151.8,P79,357.8,P4
10116,C94,,62.5%,Max,52.60,P55,4.750,P2,357.3,P8,11.02,P8,-295.8,P4,4.195,P2,357.3,P8,671.2,P8
10116,C94,,62.5%,Min,-78.67,P5,-5.807,P3,155.5,P79,4.245,P54,-671.2,P8,-4.275,P3,155.5,P79,295.8,P4
10116,C94,,68.7%,Max,52.60,P55,4.750,P2,362.4,P8,11.02,P8,-232.4,P4,4.494,P2,362.4,P8,528.0,P8
10116,C94,,68.7%,Min,-78.67,P5,-5.807,P3,159.3,P79,4.245,P54,-528.0,P8,-4.154,P3,159.3,P79,232.4,P4
10116,C94,,75.0%,Max,52.60,P55,4.750,P2,367.4,P8,11.02,P8,-167.4,P4,4.794,P2,367.4,P8,384.7,P31
10116,C94,,75.0%,Min,-78.67,P5,-5.807,P3,163.0,P79,4.245,P54,-384.7,P31,-4.033,P3,163.0,P79,167.4,P4
10116,C94,,75.0%,Max,67.18,P2,10.46,P2,361.1,P8,-12.60,P4,-146.9,P4,6.103,P2,361.1,P8,339.8,P31
10116,C94,,75.0%,Min,-73.84,P3,-11.48,P3,157.0,P76,-31.93,P8,-339.8,P31,-6.409,P3,157.1,P76,146.9,P4
10116,C94,,81.2%,Max,67.18,P2,10.46,P2,366.1,P8,-12.60,P4,-76.03,P4,7.548,P2,366.2,P8,196.1,P31
10116,C94,,81.2%,Min,-73.84,P3,-11.48,P3,160.8,P76,-31.93,P8,-196.1,P31,-7.450,P3,160.9,P76,76.19,P4
10116,C94,,87.5%,Max,67.18,P2,10.46,P2,371.2,P8,-12.60,P4,-3.708,P4,8.993,P2,371.2,P8,53.94,P5
10116,C94,,87.5%,Min,-73.84,P3,-11.48,P3,164.5,P76,-31.93,P8,-53.66,P5,-8.491,P3,164.6,P76,6.992,P4
10116,C94,,93.7%,Max,67.18,P2,10.46,P2,376.3,P8,-12.60,P4,102.8,P8,10.44,P2,376.3,P8,102.9,P8
10116,C94,,93.7%,Min,-73.84,P3,-11.48,P3,168.3,P76,-31.93,P8,30.70,P3,-9.532,P3,168.3,P76,31.55,P5
10116,C94,7658,100.0%,Max,67.18,P2,10.46,P2,381.3,P8,-12.60,P4,253.6,P8,11.88,P2,381.3,P8,253.6,P8
10116,C94,7658,100.0%,Min,-73.84,P3,-11.48,P3,172.0,P76,-31.93,P8,102.3,P79,-10.57,P3,172.1,P76,102.5,P79
10117,C94,5110,0.0%,Max,236.9,P4,11.45,P2,-32.45,P2,6.826,P30,168.2,P33,9.940,P4,72.69,P6,168.2,P33
10117,C94,5110,0.0%,Min,-325.1,P5,-11.66,P3,-72.67,P6,2.556,P65,65.96,P3,-9.532,P5,34.41,P2,66.64,P3
10117,C94,,6.2%,Max,236.9,P4,11.45,P2,-30.99,P2,6.826,P30,143.4,P33,9.077,P2,70.71,P6,143.4,P33
10117,C94,,6.2%,Min,-325.1,P5,-11.66,P3,-70.69,P6,2.556,P65,54.77,P3,-8.597,P3,33.03,P2,55.44,P3
10117,C94,,12.5%,Max,236.9,P4,11.45,P2,-29.52,P2,6.826,P30,119.3,P33,8.277,P2,68.74,P6,119.3,P33
10117,C94,,12.5%,Min,-325.1,P5,-11.66,P3,-68.72,P6,2.556,P65,44.08,P3,-7.725,P3,31.66,P2,44.75,P3
10117,C94,,18.7%,Max,236.9,P4,11.45,P2,-28.05,P2,6.826,P30,95.93,P33,7.476,P2,66.76,P6,95.93,P33
10117,C94,,18.7%,Min,-325.1,P5,-11.66,P3,-66.74,P6,2.556,P65,33.89,P3,-6.853,P3,30.30,P2,34.58,P3
10117,C94,,25.0%,Max,236.9,P4,11.45,P2,-26.59,P2,6.826,P30,73.22,P33,6.675,P2,64.78,P6,73.22,P33
10117,C94,,25.0%,Min,-325.1,P5,-11.66,P3,-64.76,P6,2.556,P65,24.22,P3,-5.980,P3,28.95,P2,24.94,P3
10117,C94,,25.0%,Max,167.5,P2,0.8299,P2,-18.85,P2,4.204,P30,64.54,P33,0.6757,P2,49.95,P6,64.54,P33
10117,C94,,25.0%,Min,-271.1,P3,-0.9508,P3,-49.94,P6,1.611,P53,20.39,P3,-0.5432,P3,18.87,P2,20.40,P3
10117,C94,,31.2%,Max,167.5,P2,0.8299,P2,-17.39,P2,4.204,P30,47.62,P33,0.7139,P2,47.97,P6,47.62,P33
10117,C94,,31.2%,Min,-271.1,P3,-0.9508,P3,-47.97,P6,1.611,P53,12.25,P3,-0.5396,P3,17.41,P2,12.26,P3
10117,C94,,37.5%,Max,167.5,P2,0.8299,P2,-15.92,P2,4.204,P30,31.40,P31,0.7521,P2,45.99,P6,31.40,P31
10117,C94,,37.5%,Min,-271.1,P3,-0.9508,P3,-45.99,P6,1.611,P53,4.625,P3,-0.5360,P3,15.94,P2,4.656,P3
10117,C94,,43.7%,Max,167.5,P2,0.8299,P2,-14.46,P2,4.204,P30,16.32,P19,0.7903,P2,44.01,P6,16.32,P19
10117,C94,,43.7%,Min,-271.1,P3,-0.9508,P3,-44.01,P6,1.611,P53,-2.885,P5,-0.5324,P3,14.48,P2,1.737,P89
10117,C94,,50.0%,Max,167.5,P2,0.8299,P2,-12.99,P2,4.204,P30,7.072,P4,0.8284,P2,42.03,P6,10.87,P5
10117,C94,,50.0%,Min,-271.1,P3,-0.9508,P3,-42.03,P6,1.611,P53,-10.87,P5,-0.5287,P3,13.02,P2,0.1890,P63
10117,C94,,50.0%,Max,156.8,P2,0.4806,P4,1.830,P2,-1.099,P2,5.326,P4,0.4243,P4,20.15,P3,13.81,P5
10117,C94,,50.0%,Min,-276.2,P3,-0.2205,P5,-20.15,P3,-3.339,P31,-13.81,P5,-0.02612,P5,0.7752,P4,0.1656,P45
10117,C94,,56.2%,Max,156.8,P2,0.4806,P4,3.295,P2,-1.099,P2,5.376,P4,0.4061,P4,18.69,P3,19.69,P5
10117,C94,,56.2%,Min,-276.2,P3,-0.2205,P5,-18.69,P3,-3.339,P31,-19.69,P5,-0.09790,P5,2.129,P4,1.500,P54
10117,C94,,62.5%,Max,156.8,P2,0.4806,P4,4.761,P2,-1.099,P2,5.933,P4,0.3931,P2,17.22,P3,25.07,P5
10117,C94,,62.5%,Min,-276.2,P3,-0.2205,P5,-17.22,P3,-3.339,P31,-25.07,P5,-0.1749,P3,3.572,P4,3.915,P54
10117,C94,,68.7%,Max,156.8,P2,0.4806,P4,6.227,P2,-1.099,P2,6.997,P4,0.3983,P2,15.76,P3,29.93,P5
10117,C94,,68.7%,Min,-276.2,P3,-0.2205,P5,-15.76,P3,-3.339,P31,-29.93,P5,-0.2701,P3,3.099,P86,5.035,P2
10117,C94,,75.0%,Max,156.8,P2,0.4806,P4,7.693,P2,-1.099,P2,8.568,P4,0.4035,P2,14.29,P3,34.30,P5
10117,C94,,75.0%,Min,-276.2,P3,-0.2205,P5,-14.29,P3,-3.339,P31,-34.29,P5,-0.3653,P3,1.635,P86,6.638,P2
10117,C94,,75.0%,Max,173.4,P2,2.778,P2,15.75,P2,-2.094,P65,8.889,P4,1.881,P2,15.99,P2,35.98,P5
10117,C94,,75.0%,Min,-315.9,P3,-5.203,P3,-6.324,P3,-6.074,P31,-35.95,P5,-2.807,P3,2.511,P57,7.575,P2
10117,C94,,81.3%,Max,173.4,P2,2.778,P2,17.21,P2,-2.094,P65,14.10,P4,2.513,P2,17.44,P2,37.41,P5
10117,C94,,81.3%,Min,-315.9,P3,-5.203,P3,-4.858,P3,-6.074,P31,-37.39,P5,-2.600,P3,3.936,P57,6.451,P66
10117,C94,,87.5%,Max,173.4,P2,2.778,P2,18.68,P2,-2.094,P65,19.82,P4,3.145,P2,18.89,P2,38.34,P5
10117,C94,,87.5%,Min,-315.9,P3,-5.203,P3,-3.392,P3,-6.074,P31,-38.33,P5,-2.393,P3,3.718,P5,4.269,P66
10117,C94,,93.8%,Max,173.4,P2,2.778,P2,20.15,P2,-2.094,P65,26.05,P4,3.777,P2,20.34,P2,38.77,P5
10117,C94,,93.8%,Min,-315.9,P3,-5.203,P3,-1.927,P3,-6.074,P31,-38.76,P5,-2.186,P3,3.082,P5,1.619,P58
10117,C94,5115,100.0%,Max,173.4,P2,2.778,P2,21.61,P2,-2.094,P65,32.78,P4,4.409,P2,21.79,P2,38.69,P5
10117,C94,5115,100.0%,Min,-315.9,P3,-5.203,P3,-0.4611,P3,-6.074,P31,-38.69,P5,-1.979,P3,3.077,P5,0.3995,P90
10118,C94,5092,0.0%,Max,240.3,P2,14.08,P2,-17.27,P4,-1.941,P2,108.7,P32,11.09,P2,56.62,P33,108.7,P32
10118,C94,5092,0.0%,Min,-305.5,P3,-11.88,P3,-56.49,P33,-6.933,P33,27.73,P5,-10.29,P3,21.47,P4,29.31,P5
10118,C94,,6.2%,Max,240.3,P2,14.08,P2,-15.80,P4,-1.941,P2,89.46,P32,9.861,P2,54.65,P33,89.46,P32
10118,C94,,6.2%,Min,-305.5,P3,-11.88,P3,-54.52,P33,-6.933,P33,21.72,P3,-9.821,P3,20.31,P4,23.67,P5
10118,C94,,12.5%,Max,240.3,P2,14.08,P2,-14.34,P4,-1.941,P2,70.94,P32,8.635,P2,52.67,P33,70.94,P32
10118,C94,,12.5%,Min,-305.5,P3,-11.88,P3,-52.54,P33,-6.933,P33,15.49,P3,-9.354,P3,19.19,P4,18.10,P3
10118,C94,,18.7%,Max,240.3,P2,14.08,P2,-12.87,P4,-1.941,P2,53.11,P32,7.408,P2,50.70,P33,53.13,P32
10118,C94,,18.7%,Min,-305.5,P3,-11.88,P3,-50.56,P33,-6.933,P33,9.774,P3,-8.887,P3,18.12,P4,13.21,P3
10118,C94,,25.0%,Max,240.3,P2,14.08,P2,-11.41,P4,-1.941,P2,35.96,P32,6.181,P2,48.73,P33,36.08,P32
10118,C94,,25.0%,Min,-305.5,P3,-11.88,P3,-48.58,P33,-6.933,P33,4.561,P3,-8.420,P3,17.11,P4,9.576,P3
10118,C94,,25.0%,Max,154.0,P2,0.3925,P4,-4.782,P4,-1.141,P4,31.27,P32,0.1932,P2,33.61,P33,31.27,P32
10118,C94,,25.0%,Min,-258.4,P3,-0.6772,P5,-33.61,P33,-4.138,P32,3.261,P3,-0.8602,P3,4.798,P4,3.373,P3
10118,C94,,31.2%,Max,154.0,P2,0.3925,P4,-3.317,P4,-1.141,P4,20.25,P2,0.2304,P2,31.63,P33,20.25,P2
10118,C94,,31.2%,Min,-258.4,P3,-0.6772,P5,-31.63,P33,-4.138,P32,-1.450,P3,-0.7989,P3,3.340,P4,0.8228,P5
10118,C94,,37.5%,Max,154.0,P2,0.3925,P4,-1.851,P4,-1.141,P4,13.99,P4,0.2676,P2,29.72,P5,13.99,P4
10118,C94,,37.5%,Min,-258.4,P3,-0.6772,P5,-29.71,P5,-4.138,P32,-6.621,P5,-0.7376,P3,1.892,P4,2.067,P89
10118,C94,,43.7%,Max,154.0,P2,0.3925,P4,-0.3852,P4,-1.141,P4,9.298,P4,0.3048,P2,28.25,P5,12.36,P5
10118,C94,,43.7%,Min,-258.4,P3,-0.6772,P5,-28.24,P5,-4.138,P32,-12.34,P5,-0.6762,P3,0.5499,P4,0.1384,P34
10118,C94,,50.0%,Max,154.0,P2,0.3925,P4,1.080,P4,-1.141,P4,5.111,P4,0.3586,P4,26.79,P5,17.56,P5
10118,C94,,50.0%,Min,-258.4,P3,-0.6772,P5,-26.78,P5,-4.138,P32,-17.55,P5,-0.6315,P5,0.8690,P2,0.3579,P2
10118,C94,,50.0%,Max,126.9,P2,0.6031,P4,13.45,P4,1.110,P33,6.288,P4,0.3667,P2,16.11,P5,19.93,P5
10118,C94,,50.0%,Min,-259.6,P3,-0.9825,P5,-16.08,P5,-0.2498,P3,-19.91,P5,-0.9700,P3,0.2908,P28,0.8522,P2
10118,C94,,56.2%,Max,126.9,P2,0.6031,P4,14.92,P4,1.110,P33,11.10,P4,0.3665,P2,14.93,P4,25.13,P5
10118,C94,,56.2%,Min,-259.6,P3,-0.9825,P5,-14.62,P5,-0.2498,P3,-25.12,P5,-0.8384,P3,0.08497,P37,5.005,P2
10118,C94,,62.5%,Max,126.9,P2,0.6031,P4,16.38,P4,1.110,P33,16.41,P4,0.4201,P4,16.40,P4,29.83,P5
10118,C94,,62.5%,Min,-259.6,P3,-0.9825,P5,-13.15,P5,-0.2498,P3,-29.82,P5,-0.7608,P5,0.3792,P68,5.383,P50
10118,C94,,68.7%,Max,126.9,P2,0.6031,P4,17.85,P4,1.110,P33,22.23,P4,0.4859,P4,17.86,P4,34.02,P5
10118,C94,,68.7%,Min,-259.6,P3,-0.9825,P5,-11.68,P5,-0.2498,P3,-34.01,P5,-0.6953,P5,0.9749,P57,4.866,P50
10118,C94,,75.0%,Max,126.9,P2,0.6031,P4,19.32,P4,1.110,P33,28.56,P4,0.5517,P4,19.33,P4,37.71,P5
10118,C94,,75.0%,Min,-259.6,P3,-0.9825,P5,-10.22,P5,-0.2498,P3,-37.70,P5,-0.6298,P5,2.375,P57,3.703,P64
10118,C94,,75.0%,Max,133.3,P2,4.886,P2,26.26,P4,2.915,P33,32.28,P4,2.649,P2,26.56,P4,37.79,P5
10118,C94,,75.0%,Min,-299.5,P3,-2.329,P3,-2.943,P5,0.1235,P3,-37.77,P5,-1.695,P3,3.055,P3,2.000,P64
10118,C94,,81.2%,Max,133.3,P2,4.886,P2,27.73,P4,2.915,P33,41.61,P4,2.378,P2,28.01,P4,41.64,P4
10118,C94,,81.2%,Min,-299.5,P3,-2.329,P3,-1.477,P5,0.1235,P3,-38.52,P5,-2.309,P3,2.028,P5,0.03266,P79
10118,C94,,87.5%,Max,133.3,P2,4.886,P2,29.19,P4,2.915,P33,51.44,P4,2.108,P2,29.46,P4,51.46,P4
10118,C94,,87.5%,Min,-299.5,P3,-2.329,P3,-0.01179,P5,0.1235,P3,-38.76,P5,-2.923,P3,1.389,P5,1.036,P57
10118,C94,,93.7%,Max,133.3,P2,4.886,P2,30.66,P4,2.915,P33,61.77,P4,1.837,P2,30.91,P4,61.79,P4
10118,C94,,93.7%,Min,-299.5,P3,-2.329,P3,1.454,P5,0.1235,P3,-38.50,P5,-3.537,P3,2.011,P5,5.063,P57
10118,C94,5091,100.0%,Max,133.3,P2,4.886,P2,32.12,P4,2.915,P33,72.62,P4,1.567,P2,32.37,P4,72.62,P4
10118,C94,5091,100.0%,Min,-299.5,P3,-2.329,P3,2.920,P5,0.1235,P3,-37.72,P5,-4.151,P3,3.233,P5,9.662,P57
10196,C94,6515,0.0%,Max,99.05,P2,3.676,P2,317.2,P12,10.58,P24,62.99,P2,3.260,P69,317.2,P12,533.7,P3
10196,C94,6515,0.0%,Min,-148.2,P3,-6.714,P3,-32.12,P3,3.550,P3,-533.7,P3,-5.824,P3,10.66,P69,29.14,P4
10196,C94,,12.5%,Max,99.05,P2,3.676,P2,322.1,P12,10.58,P24,53.83,P2,3.178,P2,322.1,P12,416.9,P3
10196,C94,,12.5%,Min,-148.2,P3,-6.714,P3,-28.50,P3,3.550,P3,-416.9,P3,-5.178,P3,13.36,P5,25.81,P4
10196,C94,,25.0%,Max,99.05,P2,3.676,P2,327.0,P12,10.58,P24,46.07,P2,3.701,P2,327.0,P12,298.7,P3
10196,C94,,25.0%,Min,-148.2,P3,-6.714,P3,-24.88,P3,3.550,P3,-298.7,P3,-4.531,P3,10.27,P5,23.88,P4
10196,C94,,37.5%,Max,99.05,P2,3.676,P2,331.9,P12,10.58,P24,39.71,P2,4.223,P2,331.9,P12,179.2,P3
10196,C94,,37.5%,Min,-148.2,P3,-6.714,P3,-21.26,P3,3.550,P3,-179.1,P3,-3.885,P3,7.668,P5,18.53,P57
10196,C94,,50.0%,Max,99.05,P2,3.676,P2,336.8,P12,10.58,P24,34.73,P2,4.746,P2,336.8,P12,58.28,P3
10196,C94,,50.0%,Min,-148.2,P3,-6.714,P3,-17.63,P3,3.550,P3,-58.19,P3,-3.239,P3,6.190,P5,0.4045,P43
10196,C94,,50.0%,Max,44.13,P2,4.184,P2,379.8,P24,8.080,P31,41.38,P2,2.984,P69,379.8,P24,41.46,P2
10196,C94,,50.0%,Min,-82.24,P3,-5.822,P3,0.2861,P3,2.390,P3,-27.05,P3,-3.882,P3,5.829,P3,0.8383,P66
10196,C94,,62.5%,Max,44.13,P2,4.184,P2,384.7,P24,8.080,P31,172.0,P24,3.210,P2,384.7,P24,172.0,P24
10196,C94,,62.5%,Min,-82.24,P3,-5.822,P3,3.907,P3,2.390,P3,-14.29,P3,-3.903,P3,7.011,P3,4.030,P5
10196,C94,,75.0%,Max,44.13,P2,4.184,P2,389.6,P24,8.080,P31,320.9,P24,3.860,P2,389.6,P24,320.9,P24
10196,C94,,75.0%,Min,-82.24,P3,-5.822,P3,7.528,P3,2.390,P3,-0.1333,P3,-3.923,P3,9.516,P3,3.926,P3
10196,C94,,87.5%,Max,44.13,P2,4.184,P2,394.5,P24,8.080,P31,471.7,P24,4.510,P2,394.5,P24,471.7,P24
10196,C94,,87.5%,Min,-82.24,P3,-5.822,P3,11.15,P3,2.390,P3,15.41,P3,-3.944,P3,12.58,P3,15.91,P3
10196,C94,5990,100.0%,Max,44.13,P2,4.184,P2,399.4,P24,8.080,P31,624.4,P24,5.161,P2,399.4,P24,624.4,P24
10196,C94,5990,100.0%,Min,-82.24,P3,-5.822,P3,14.77,P3,2.390,P3,32.35,P3,-3.964,P3,15.88,P3,32.59,P3
10197,C94,7374,0.0%,Max,184.5,P2,31.10,P2,-68.30,P2,-11.83,P48,915.1,P2,26.40,P2,488.1,P33,915.4,P2
10197,C94,7374,0.0%,Min,-293.4,P3,-22.13,P3,-488.1,P33,-35.46,P33,-447.7,P3,-15.34,P3,75.05,P2,26.76,P77
10197,C94,,12.5%,Max,184.5,P2,31.10,P2,-65.47,P2,-11.83,P48,806.1,P2,23.00,P2,484.3,P33,806.5,P2
10197,C94,,12.5%,Min,-293.4,P3,-22.13,P3,-484.3,P33,-35.46,P33,-468.4,P3,-14.64,P3,72.48,P2,5.099,P47
10197,C94,,25.0%,Max,184.5,P2,31.10,P2,-62.64,P2,-11.83,P48,698.0,P2,19.60,P2,480.5,P33,698.3,P2
10197,C94,,25.0%,Min,-293.4,P3,-22.13,P3,-480.4,P33,-35.46,P33,-488.3,P3,-13.93,P3,69.94,P2,4.265,P89
10197,C94,,37.5%,Max,184.5,P2,31.10,P2,-59.81,P2,-11.83,P48,590.8,P2,16.19,P2,476.6,P33,591.0,P2
10197,C94,,37.5%,Min,-293.4,P3,-22.13,P3,-476.6,P33,-35.46,P33,-507.2,P3,-13.22,P3,67.42,P2,1.412,P62
10197,C94,,50.0%,Max,184.5,P2,31.10,P2,-56.99,P2,-11.83,P48,484.4,P2,13.05,P4,472.8,P33,525.5,P3
10197,C94,,50.0%,Min,-293.4,P3,-22.13,P3,-472.8,P33,-35.46,P33,-525.4,P3,-12.78,P5,64.92,P2,10.15,P87
10197,C94,,50.0%,Max,150.9,P2,10.91,P2,-19.75,P2,-2.572,P2,464.4,P2,5.723,P2,412.0,P21,525.0,P3
10197,C94,,50.0%,Min,-224.4,P3,-7.341,P3,-412.0,P21,-9.889,P32,-524.9,P3,-3.418,P3,22.56,P2,2.794,P9
10197,C94,,62.5%,Max,150.9,P2,10.91,P2,-16.92,P2,-2.572,P2,367.4,P2,5.792,P2,408.2,P21,531.5,P3
10197,C94,,62.5%,Min,-224.4,P3,-7.341,P3,-408.2,P21,-9.889,P32,-531.5,P3,-4.559,P3,20.13,P2,2.940,P79
10197,C94,,75.0%,Max,150.9,P2,10.91,P2,-14.09,P2,-2.572,P2,271.2,P2,5.861,P2,404.3,P21,537.2,P3
10197,C94,,75.0%,Min,-224.4,P3,-7.341,P3,-404.3,P21,-9.889,P32,-537.1,P3,-5.701,P3,17.82,P2,3.821,P54
10197,C94,,87.5%,Max,150.9,P2,10.91,P2,-11.26,P2,-2.572,P2,175.9,P2,5.930,P2,400.5,P21,542.0,P3
10197,C94,,87.5%,Min,-224.4,P3,-7.341,P3,-400.5,P21,-9.889,P32,-542.0,P3,-6.842,P3,15.68,P2,6.138,P67
10197,C94,6515,100.0%,Max,150.9,P2,10.91,P2,-8.435,P2,-2.572,P2,81.37,P2,5.999,P2,396.7,P21,546.0,P3
10197,C94,6515,100.0%,Min,-224.4,P3,-7.341,P3,-396.7,P21,-9.889,P32,-546.0,P3,-7.984,P3,13.79,P2,27.44,P69
10198,C94,7718,0.0%,Max,208.1,P2,7.217,P2,-33.75,P2,3.576,P33,226.4,P6,6.582,P2,96.98,P6,226.4,P6
10198,C94,7718,0.0%,Min,-254.5,P3,-4.545,P3,-96.96,P6,0.6238,P3,71.88,P3,-4.131,P3,34.51,P2,72.00,P3
10198,C94,,6.3%,Max,208.1,P2,7.217,P2,-31.58,P2,3.576,P33,189.7,P6,5.658,P2,94.05,P6,189.7,P6
10198,C94,,6.3%,Min,-254.5,P3,-4.545,P3,-94.03,P6,0.6238,P3,57.46,P3,-4.233,P3,32.39,P2,57.62,P3
10198,C94,,12.5%,Max,208.1,P2,7.217,P2,-29.41,P2,3.576,P33,154.2,P6,4.735,P2,91.13,P6,154.2,P6
10198,C94,,12.5%,Min,-254.5,P3,-4.545,P3,-91.11,P6,0.6238,P3,43.87,P3,-4.335,P3,30.28,P2,44.08,P3
10198,C94,,18.8%,Max,208.1,P2,7.217,P2,-27.24,P2,3.576,P33,119.8,P6,3.811,P2,88.20,P6,119.8,P6
10198,C94,,18.8%,Min,-254.5,P3,-4.545,P3,-88.18,P6,0.6238,P3,31.11,P3,-4.437,P3,28.18,P2,31.43,P3
10198,C94,,25.0%,Max,208.1,P2,7.217,P2,-25.08,P2,3.576,P33,86.51,P6,2.887,P2,85.28,P6,86.51,P6
10198,C94,,25.0%,Min,-254.5,P3,-4.545,P3,-85.25,P6,0.6238,P3,19.19,P3,-4.539,P3,26.09,P2,19.72,P3
10198,C94,,25.0%,Max,181.4,P2,4.071,P4,5.637,P2,1.481,P2,79.12,P6,3.144,P4,22.92,P3,79.13,P6
10198,C94,,25.0%,Min,-214.6,P3,-2.403,P69,-22.81,P3,-0.3162,P3,17.21,P3,-2.010,P69,5.008,P82,17.29,P3
10198,C94,,31.3%,Max,181.4,P2,4.071,P4,7.805,P2,1.481,P2,74.10,P6,2.814,P4,20.76,P3,74.11,P6
10198,C94,,31.3%,Min,-214.6,P3,-2.403,P69,-20.64,P3,-0.3162,P3,15.02,P3,-2.188,P5,2.937,P82,15.16,P3
10198,C94,,37.5%,Max,181.4,P2,4.071,P4,9.973,P2,1.481,P2,70.21,P6,2.484,P4,18.61,P3,70.21,P6
10198,C94,,37.5%,Min,-214.6,P3,-2.403,P69,-18.47,P3,-0.3162,P3,13.67,P3,-2.503,P5,0.8673,P90,13.88,P3
10198,C94,,43.8%,Max,181.4,P2,4.071,P4,12.14,P2,1.481,P2,67.44,P6,2.154,P4,16.46,P3,67.45,P6
10198,C94,,43.8%,Min,-214.6,P3,-2.403,P69,-16.30,P3,-0.3162,P3,13.15,P3,-2.819,P5,0.7989,P42,13.44,P3
10198,C94,,50.0%,Max,181.4,P2,4.071,P4,14.31,P2,1.481,P2,65.80,P6,1.825,P4,14.84,P2,65.81,P6
10198,C94,,50.0%,Min,-214.6,P3,-2.403,P69,-14.13,P3,-0.3162,P3,13.46,P3,-3.134,P5,0.1209,P18,13.82,P3
10198,C94,,50.0%,Max,164.5,P2,2.920,P4,103.8,P8,0.5271,P2,73.68,P6,2.046,P2,103.8,P8,73.68,P6
10198,C94,,50.0%,Min,-181.6,P3,-2.033,P69,36.64,P77,-0.8971,P3,17.01,P3,-1.609,P69,36.67,P77,17.06,P3
10198,C94,,56.3%,Max,164.5,P2,2.920,P4,106.7,P8,0.5271,P2,113.3,P25,1.911,P2,106.7,P8,113.3,P25
10198,C94,,56.3%,Min,-181.6,P3,-2.033,P69,38.81,P77,-0.8971,P3,35.00,P3,-1.634,P3,38.84,P77,35.04,P3
10198,C94,,62.5%,Max,164.5,P2,2.920,P4,109.6,P8,0.5271,P2,154.1,P25,1.795,P4,109.6,P8,154.1,P25
10198,C94,,62.5%,Min,-181.6,P3,-2.033,P69,40.98,P77,-0.8971,P3,53.82,P3,-1.927,P5,41.00,P77,53.86,P3
10198,C94,,68.8%,Max,164.5,P2,2.920,P4,112.5,P8,0.5271,P2,196.3,P8,1.681,P4,112.6,P8,196.3,P8
10198,C94,,68.8%,Min,-181.6,P3,-2.033,P69,43.14,P77,-0.8971,P3,72.74,P5,-2.222,P5,43.17,P77,72.78,P5
10198,C94,,75.0%,Max,164.5,P2,2.920,P4,115.5,P8,0.5271,P2,240.1,P8,1.567,P4,115.5,P8,240.1,P8
10198,C94,,75.0%,Min,-181.6,P3,-2.033,P69,45.31,P77,-0.8971,P3,92.13,P5,-2.518,P5,45.34,P77,92.17,P5
10198,C94,,75.0%,Max,165.5,P4,3.197,P2,183.5,P8,-0.5256,P2,264.1,P8,2.014,P2,183.5,P8,264.1,P8
10198,C94,,75.0%,Min,-160.9,P5,-2.871,P3,70.65,P77,-3.001,P31,102.7,P5,-1.794,P3,70.65,P77,102.7,P5
10198,C94,,81.3%,Max,165.5,P4,3.197,P2,186.4,P8,-0.5256,P2,335.1,P8,2.171,P2,186.4,P8,335.1,P8
10198,C94,,81.3%,Min,-160.9,P5,-2.871,P3,72.81,P77,-3.001,P31,131.3,P55,-2.075,P3,72.82,P77,131.3,P55
10198,C94,,87.5%,Max,165.5,P4,3.197,P2,189.3,P8,-0.5256,P2,407.2,P8,2.327,P2,189.3,P8,407.2,P8
10198,C94,,87.5%,Min,-160.9,P5,-2.871,P3,74.98,P77,-3.001,P31,160.2,P79,-2.357,P3,74.98,P77,160.2,P79
10198,C94,,93.8%,Max,165.5,P4,3.197,P2,192.2,P8,-0.5256,P2,480.4,P8,2.484,P2,192.2,P8,480.4,P8
10198,C94,,93.8%,Min,-160.9,P5,-2.871,P3,77.15,P77,-3.001,P31,189.8,P79,-2.638,P3,77.15,P77,189.8,P79
10198,C94,6515,100.0%,Max,165.5,P4,3.197,P2,195.2,P8,-0.5256,P2,554.7,P8,2.641,P2,195.2,P8,554.7,P8
10198,C94,6515,100.0%,Min,-160.9,P5,-2.871,P3,79.32,P77,-3.001,P31,220.1,P79,-2.920,P3,79.32,P77,220.1,P79
10201,C94,6518,0.0%,Max,144.8,P2,2.573,P2,-61.50,P77,10.19,P6,171.0,P9,2.183,P4,166.3,P32,171.0,P9
10201,C94,6518,0.0%,Min,-92.03,P3,-1.360,P3,-166.3,P32,2.673,P92,-5.641,P77,-1.217,P5,61.51,P77,0.6573,P75
10201,C94,,5.0%,Max,144.8,P2,2.573,P2,-59.52,P77,10.19,P6,118.4,P9,1.828,P4,163.6,P32,118.4,P9
10201,C94,,5.0%,Min,-92.03,P3,-1.360,P3,-163.6,P32,2.673,P92,-26.82,P77,-1.287,P5,59.53,P77,0.3227,P55
10201,C94,,10.0%,Max,144.8,P2,2.573,P2,-57.54,P77,10.19,P6,74.66,P2,1.474,P4,161.0,P32,74.68,P2
10201,C94,,10.0%,Min,-92.03,P3,-1.360,P3,-161.0,P32,2.673,P92,-47.74,P3,-1.356,P5,57.55,P77,0.2258,P13
10201,C94,,15.0%,Max,144.8,P2,2.573,P2,-55.56,P77,10.19,P6,47.01,P92,1.211,P2,158.3,P32,72.45,P3
10201,C94,,15.0%,Min,-92.03,P3,-1.360,P3,-158.3,P32,2.673,P92,-72.43,P3,-1.519,P3,55.57,P77,1.800,P8
10201,C94,,20.0%,Max,144.8,P2,2.573,P2,-53.59,P77,10.19,P6,22.43,P92,0.9557,P2,155.6,P32,109.1,P7
10201,C94,,20.0%,Min,-92.03,P3,-1.360,P3,-155.6,P32,2.673,P92,-109.1,P7,-1.687,P3,53.60,P77,0.7431,P91
10201,C94,,20.0%,Max,126.0,P2,2.305,P4,-26.19,P77,1.457,P2,13.80,P92,1.863,P4,90.20,P32,125.2,P7
10201,C94,,20.0%,Min,-84.67,P3,-1.068,P5,-90.20,P32,-0.6722,P3,-125.2,P7,-0.8817,P5,26.22,P77,4.867,P90
10201,C94,,25.0%,Max,126.0,P2,2.305,P4,-24.22,P77,1.457,P2,-2.525,P92,1.574,P4,87.53,P32,149.3,P7
10201,C94,,25.0%,Min,-84.67,P3,-1.068,P5,-87.53,P32,-0.6722,P3,-149.3,P7,-1.026,P5,24.24,P77,2.526,P92
10201,C94,,30.0%,Max,126.0,P2,2.305,P4,-22.24,P77,1.457,P2,-18.16,P92,1.285,P4,84.86,P32,175.4,P6
10201,C94,,30.0%,Min,-84.67,P3,-1.068,P5,-84.86,P32,-0.6722,P3,-175.4,P6,-1.170,P5,22.27,P77,18.16,P92
10201,C94,,35.0%,Max,126.0,P2,2.305,P4,-20.26,P77,1.457,P2,-33.11,P92,0.9965,P4,82.19,P32,201.6,P6
10201,C94,,35.0%,Min,-84.67,P3,-1.068,P5,-82.19,P32,-0.6722,P3,-201.6,P6,-1.314,P5,20.29,P77,33.11,P92
10201,C94,,40.0%,Max,126.0,P2,2.305,P4,-18.28,P77,1.457,P2,-47.36,P92,0.7510,P2,79.52,P32,226.8,P6
10201,C94,,40.0%,Min,-84.67,P3,-1.068,P5,-79.52,P32,-0.6722,P3,-226.8,P6,-1.502,P3,18.32,P77,47.36,P92
10201,C94,,40.0%,Max,106.3,P2,2.178,P4,37.35,P6,-1.850,P68,-46.47,P92,1.748,P4,37.35,P6,223.0,P6
10201,C94,,40.0%,Min,-78.82,P3,-1.099,P5,0.3780,P68,-5.758,P6,-223.0,P6,-0.9214,P5,0.5032,P68,46.47,P92
10201,C94,,45.0%,Max,106.3,P2,2.178,P4,40.01,P6,-1.850,P68,-45.86,P92,1.485,P4,40.02,P6,209.4,P6
10201,C94,,45.0%,Min,-78.82,P3,-1.099,P5,2.355,P68,-5.758,P6,-209.4,P6,-1.036,P5,2.379,P68,45.86,P92
10201,C94,,50.0%,Max,106.3,P2,2.178,P4,42.68,P6,-1.850,P68,-44.56,P92,1.221,P4,42.69,P6,195.0,P6
10201,C94,,50.0%,Min,-78.82,P3,-1.099,P5,4.333,P68,-5.758,P6,-195.0,P6,-1.151,P5,4.346,P68,44.56,P92
10201,C94,,55.0%,Max,106.3,P2,2.178,P4,45.35,P6,-1.850,P68,-42.57,P92,0.9583,P4,45.36,P6,179.5,P6
10201,C94,,55.0%,Min,-78.82,P3,-1.099,P5,6.310,P68,-5.758,P6,-179.5,P6,-1.265,P5,6.319,P68,42.57,P92
10201,C94,,60.0%,Max,106.3,P2,2.178,P4,48.02,P6,-1.850,P68,-39.89,P92,0.6952,P4,48.03,P6,163.2,P6
10201,C94,,60.0%,Min,-78.82,P3,-1.099,P5,8.288,P68,-5.758,P6,-163.2,P6,-1.380,P5,8.294,P68,39.89,P92
10201,C94,,60.0%,Max,91.49,P2,2.514,P4,164.2,P6,-0.5003,P2,-33.64,P92,1.895,P4,164.2,P6,145.7,P6
10201,C94,,60.0%,Min,-73.47,P3,-1.373,P5,51.80,P68,-4.362,P6,-145.7,P6,-1.088,P5,51.80,P68,33.64,P92
10201,C94,,65.0%,Max,91.49,P2,2.514,P4,166.8,P6,-0.5003,P2,-11.41,P2,1.641,P4,166.8,P6,87.76,P6
10201,C94,,65.0%,Min,-73.47,P3,-1.373,P5,53.78,P68,-4.362,P6,-87.76,P6,-1.233,P5,53.78,P68,11.48,P2
10201,C94,,70.0%,Max,91.49,P2,2.514,P4,169.5,P6,-0.5003,P2,14.63,P2,1.387,P4,169.5,P6,35.37,P3
10201,C94,,70.0%,Min,-73.47,P3,-1.373,P5,55.75,P68,-4.362,P6,-35.35,P3,-1.379,P5,55.75,P68,0.3760,P87
10201,C94,,75.0%,Max,91.49,P2,2.514,P4,172.2,P6,-0.5003,P2,42.95,P9,1.133,P4,172.2,P6,42.95,P9
10201,C94,,75.0%,Min,-73.47,P3,-1.373,P5,57.73,P68,-4.362,P6,-3.475,P3,-1.524,P5,57.73,P68,0.2214,P55
10201,C94,,80.0%,Max,91.49,P2,2.514,P4,174.8,P6,-0.5003,P2,100.3,P8,0.8788,P4,174.8,P6,100.3,P8
10201,C94,,80.0%,Min,-73.47,P3,-1.373,P5,59.71,P68,-4.362,P6,24.85,P46,-1.669,P5,59.71,P68,24.86,P46
10201,C94,,80.0%,Max,80.20,P2,4.013,P4,250.7,P6,-0.2455,P2,134.8,P8,2.644,P4,250.7,P6,134.8,P8
10201,C94,,80.0%,Min,-68.55,P3,-2.332,P5,87.54,P68,-4.124,P6,39.26,P46,-1.614,P5,87.54,P68,39.26,P46
10201,C94,,85.0%,Max,80.20,P2,4.013,P4,253.4,P6,-0.2455,P2,220.0,P8,2.400,P4,253.4,P6,220.0,P8
10201,C94,,85.0%,Min,-68.55,P3,-2.332,P5,89.52,P68,-4.124,P6,76.81,P46,-1.959,P5,89.52,P68,76.81,P46
10201,C94,,90.0%,Max,80.20,P2,4.013,P4,256.0,P6,-0.2455,P2,307.5,P29,2.157,P4,256.0,P6,307.5,P29
10201,C94,,90.0%,Min,-68.55,P3,-2.332,P5,91.49,P68,-4.124,P6,113.8,P56,-2.304,P5,91.49,P68,113.8,P56
10201,C94,,95.0%,Max,80.20,P2,4.013,P4,258.7,P6,-0.2455,P2,397.3,P29,1.913,P4,258.7,P6,397.3,P29
10201,C94,,95.0%,Min,-68.55,P3,-2.332,P5,93.47,P68,-4.124,P6,148.2,P68,-2.649,P5,93.47,P68,148.2,P68
10201,C94,6033,100.0%,Max,80.20,P2,4.013,P4,261.4,P6,-0.2455,P2,488.0,P29,1.669,P4,261.4,P6,488.0,P29
10201,C94,6033,100.0%,Min,-68.55,P3,-2.332,P5,95.45,P68,-4.124,P6,181.3,P68,-2.994,P5,95.45,P68,181.3,P68
10202,C94,6519,0.0%,Max,561.4,P2,7.278,P2,120.9,P9,2.920,P2,40.05,P72,5.532,P2,121.0,P9,187.0,P9
10202,C94,6519,0.0%,Min,-366.7,P69,-3.907,P3,-42.41,P70,-2.258,P74,-187.0,P9,-2.976,P3,3.159,P39,8.952,P55
10202,C94,,12.5%,Max,561.4,P2,7.278,P2,124.2,P9,2.920,P2,28.82,P2,5.088,P2,124.2,P9,134.5,P3
10202,C94,,12.5%,Min,-366.7,P69,-3.907,P3,-39.98,P70,-2.258,P74,-134.5,P3,-3.978,P3,1.957,P39,0.6657,P78
10202,C94,,25.0%,Max,561.4,P2,7.278,P2,127.5,P9,2.920,P2,29.47,P2,4.643,P2,127.5,P9,97.65,P3
10202,C94,,25.0%,Min,-366.7,P69,-3.907,P3,-37.56,P70,-2.258,P74,-97.52,P3,-4.981,P3,1.497,P38,1.485,P74
10202,C94,,37.5%,Max,561.4,P2,7.278,P2,130.8,P9,2.920,P2,31.17,P2,4.198,P2,130.8,P9,59.85,P3
10202,C94,,37.5%,Min,-366.7,P69,-3.907,P3,-35.13,P70,-2.258,P74,-59.55,P3,-5.983,P3,1.077,P54,6.137,P49
10202,C94,,50.0%,Max,561.4,P2,7.278,P2,134.0,P9,2.920,P2,33.91,P2,3.754,P2,134.0,P9,34.12,P2
10202,C94,,50.0%,Min,-366.7,P69,-3.907,P3,-32.71,P70,-2.258,P74,-28.96,P50,-6.985,P3,1.359,P54,1.122,P31
10202,C94,,50.0%,Max,670.0,P2,5.512,P2,160.2,P9,3.651,P2,46.95,P9,3.257,P2,160.2,P9,46.95,P9
10202,C94,,50.0%,Min,-397.0,P3,-2.995,P3,-25.76,P70,-1.649,P74,-32.82,P70,-1.792,P3,1.919,P5,0.3895,P62
10202,C94,,62.5%,Max,670.0,P2,5.512,P2,163.5,P9,3.651,P2,116.4,P9,3.308,P2,163.5,P9,116.4,P9
10202,C94,,62.5%,Min,-397.0,P3,-2.995,P3,-23.34,P70,-1.649,P74,-43.36,P70,-2.923,P3,2.572,P5,0.8582,P81
10202,C94,,75.0%,Max,670.0,P2,5.512,P2,166.8,P9,3.651,P2,187.3,P9,3.360,P2,166.8,P9,187.3,P9
10202,C94,,75.0%,Min,-397.0,P3,-2.995,P3,-20.91,P70,-1.649,P74,-52.86,P70,-4.055,P3,2.760,P78,1.941,P35
10202,C94,,87.5%,Max,670.0,P2,5.512,P2,170.1,P9,3.651,P2,259.6,P9,3.411,P2,170.1,P9,259.6,P9
10202,C94,,87.5%,Min,-397.0,P3,-2.995,P3,-18.49,P70,-1.649,P74,-61.31,P70,-5.187,P3,1.237,P78,5.057,P34
10202,C94,5971,100.0%,Max,670.0,P2,5.512,P2,173.3,P9,3.651,P2,333.3,P9,3.462,P2,173.3,P9,333.3,P9
10202,C94,5971,100.0%,Min,-397.0,P3,-2.995,P3,-16.07,P70,-1.649,P74,-68.73,P70,-6.318,P3,2.001,P79,2.791,P54
10203,C94,4788,0.0%,Max,380.3,P2,5.052,P2,66.35,P92,0.9847,P4,517.4,P72,5.051,P2,123.4,P74,525.0,P92
10203,C94,4788,0.0%,Min,-348.1,P69,-2.185,P47,-123.4,P76,-1.189,P5,-525.0,P92,-3.214,P47,1.908,P66,7.657,P1
10203,C94,,8.3%,Max,380.3,P2,5.052,P2,68.36,P92,0.9847,P4,474.0,P72,3.960,P2,121.4,P74,501.1,P92
10203,C94,,8.3%,Min,-348.1,P69,-2.185,P47,-121.4,P76,-1.189,P5,-501.1,P92,-2.829,P3,0.1308,P66,10.79,P1
10203,C94,,16.7%,Max,380.3,P2,5.052,P2,70.37,P92,0.9847,P4,431.3,P72,2.869,P2,119.4,P74,476.4,P92
10203,C94,,16.7%,Min,-348.1,P69,-2.185,P47,-119.4,P76,-1.189,P5,-476.4,P92,-2.773,P3,2.106,P66,0.9811,P30
10203,C94,,25.0%,Max,380.3,P2,5.052,P2,72.37,P92,0.9847,P4,389.2,P72,1.778,P2,117.4,P74,451.1,P92
10203,C94,,25.0%,Min,-348.1,P69,-2.185,P47,-117.4,P76,-1.189,P5,-451.1,P92,-2.717,P3,4.110,P66,0.3908,P18
10203,C94,,33.3%,Max,380.3,P2,5.052,P2,74.38,P92,0.9847,P4,347.9,P72,0.6866,P2,115.4,P74,425.1,P92
10203,C94,,33.3%,Min,-348.1,P69,-2.185,P47,-115.4,P76,-1.189,P5,-425.1,P92,-2.661,P3,2.694,P67,2.607,P60
10203,C94,,33.3%,Max,397.2,P2,1.817,P2,82.92,P92,-0.4514,P49,337.1,P72,1.705,P2,109.1,P74,425.9,P92
10203,C94,,33.3%,Min,-330.8,P69,-1.218,P3,-109.1,P74,-3.399,P33,-425.8,P92,-1.740,P3,3.445,P56,1.067,P42
10203,C94,,41.7%,Max,397.2,P2,1.817,P2,84.92,P92,-0.4514,P49,298.7,P72,1.498,P2,107.1,P74,396.1,P92
10203,C94,,41.7%,Min,-330.8,P69,-1.218,P3,-107.1,P74,-3.399,P33,-396.1,P92,-1.745,P3,1.446,P56,10.01,P42
10203,C94,,50.0%,Max,397.2,P2,1.817,P2,86.93,P92,-0.4514,P49,261.1,P72,1.290,P2,105.1,P74,365.6,P92
10203,C94,,50.0%,Min,-330.8,P69,-1.218,P3,-105.1,P74,-3.399,P33,-365.6,P92,-1.750,P3,0.3002,P57,0.6256,P22
10203,C94,,58.3%,Max,397.2,P2,1.817,P2,88.93,P92,-0.4514,P49,224.1,P72,1.082,P2,103.1,P74,334.3,P92
10203,C94,,58.3%,Min,-330.8,P69,-1.218,P3,-103.1,P74,-3.399,P33,-334.3,P92,-1.756,P3,2.228,P57,1.811,P43
10203,C94,,66.7%,Max,397.2,P2,1.817,P2,90.94,P92,-0.4514,P49,187.9,P72,0.8746,P2,101.1,P74,302.4,P92
10203,C94,,66.7%,Min,-330.8,P69,-1.218,P3,-101.1,P74,-3.399,P33,-302.4,P92,-1.761,P3,4.228,P57,1.496,P6
10203,C94,,66.7%,Max,423.8,P2,1.404,P49,82.80,P92,1.667,P4,180.9,P72,0.3379,P2,97.79,P70,297.1,P92
10203,C94,,66.7%,Min,-323.7,P69,-0.9851,P69,-97.78,P70,-0.4734,P5,-297.1,P92,-0.1459,P3,1.351,P57,3.711,P6
10203,C94,,75.0%,Max,423.8,P2,1.404,P49,84.80,P92,1.667,P4,146.6,P72,0.4861,P2,95.78,P70,267.4,P92
10203,C94,,75.0%,Min,-323.7,P69,-0.9851,P69,-95.78,P70,-0.4734,P5,-267.4,P92,-0.5721,P3,3.321,P57,1.105,P16
10203,C94,,83.3%,Max,423.8,P2,1.404,P49,86.81,P92,1.667,P4,113.0,P72,0.6343,P2,93.78,P70,236.9,P92
10203,C94,,83.3%,Min,-323.7,P69,-0.9851,P69,-93.77,P70,-0.4734,P5,-236.9,P92,-0.9983,P3,5.317,P57,0.7392,P80
10203,C94,,91.7%,Max,423.8,P2,1.404,P49,88.82,P92,1.667,P4,80.07,P72,0.9083,P69,91.77,P70,205.7,P9
10203,C94,,91.7%,Min,-323.7,P69,-0.9851,P69,-91.77,P70,-0.4734,P5,-205.7,P9,-1.425,P3,6.503,P65,2.176,P39
10203,C94,6519,100.0%,Max,423.8,P2,1.404,P49,90.82,P92,1.667,P4,47.90,P72,1.258,P69,90.82,P92,186.3,P9
10203,C94,6519,100.0%,Min,-323.7,P69,-0.9851,P69,-89.76,P70,-0.4734,P5,-186.3,P9,-1.851,P3,4.517,P65,3.652,P55
10204,C94,6519,0.0%,Max,127.0,P2,5.845,P2,-17.50,P92,-0.8461,P76,-0.4067,P46,3.933,P2,60.89,P6,7.564,P3
10204,C94,6519,0.0%,Min,-75.79,P3,-9.351,P3,-60.75,P6,-9.025,P8,-5.737,P8,-6.208,P3,17.93,P92,0.8692,P55
10204,C94,,8.3%,Max,127.0,P2,5.845,P2,-15.57,P92,-0.8461,P76,-8.327,P2,4.590,P2,58.30,P6,24.66,P6
10204,C94,,8.3%,Min,-75.79,P3,-9.351,P3,-58.15,P6,-9.025,P8,-24.63,P6,-5.671,P3,16.05,P92,8.973,P4
10204,C94,,16.7%,Max,127.0,P2,5.845,P2,-13.65,P92,-0.8461,P76,-14.26,P68,5.247,P2,55.71,P6,43.99,P6
10204,C94,,16.7%,Min,-75.79,P3,-9.351,P3,-55.55,P6,-9.025,P8,-43.99,P6,-5.134,P3,14.19,P92,14.26,P68
10204,C94,,25.0%,Max,127.0,P2,5.845,P2,-11.73,P92,-0.8461,P76,-18.65,P68,5.904,P2,53.12,P6,62.49,P6
10204,C94,,25.0%,Min,-75.79,P3,-9.351,P3,-52.96,P6,-9.025,P8,-62.47,P6,-4.597,P3,12.36,P92,18.75,P92
10204,C94,,33.3%,Max,127.0,P2,5.845,P2,-9.804,P92,-0.8461,P76,-22.35,P92,6.561,P2,50.53,P6,80.12,P6
10204,C94,,33.3%,Min,-75.79,P3,-9.351,P3,-50.36,P6,-9.025,P8,-80.06,P6,-4.061,P69,10.55,P92,22.55,P92
10204,C94,,33.3%,Max,154.3,P2,3.728,P2,48.81,P8,4.902,P7,-20.68,P92,2.313,P2,48.81,P8,85.90,P6
10204,C94,,33.3%,Min,-92.27,P3,-5.729,P3,0.8591,P77,-1.862,P92,-85.88,P6,-3.552,P3,3.478,P76,20.74,P92
10204,C94,,41.7%,Max,154.3,P2,3.728,P2,51.40,P8,4.902,P7,-9.909,P92,2.800,P2,51.41,P8,72.98,P6
10204,C94,,41.7%,Min,-92.27,P3,-5.729,P3,2.783,P77,-1.862,P92,-72.98,P6,-3.357,P3,4.465,P76,9.929,P92
10204,C94,,50.0%,Max,154.3,P2,3.728,P2,54.00,P8,4.902,P7,1.521,P92,3.287,P2,54.01,P8,60.99,P7
10204,C94,,50.0%,Min,-92.27,P3,-5.729,P3,4.706,P77,-1.862,P92,-60.99,P7,-3.163,P3,5.895,P77,0.5306,P69
10204,C94,,58.3%,Max,154.3,P2,3.728,P2,56.60,P8,4.902,P7,13.61,P92,3.774,P2,56.60,P8,49.51,P5
10204,C94,,58.3%,Min,-92.27,P3,-5.729,P3,6.630,P77,-1.862,P92,-49.47,P5,-2.968,P3,7.521,P77,0.2023,P83
10204,C94,,66.7%,Max,154.3,P2,3.728,P2,59.19,P8,4.902,P7,27.10,P4,4.261,P2,59.20,P8,45.60,P5
10204,C94,,66.7%,Min,-92.27,P3,-5.729,P3,8.554,P77,-1.862,P92,-45.56,P5,-2.773,P3,9.261,P77,0.8186,P58
10204,C94,,66.7%,Max,156.8,P2,2.904,P2,112.1,P8,9.858,P6,34.10,P4,1.606,P2,112.1,P8,42.65,P5
10204,C94,,66.7%,Min,-93.58,P3,-3.659,P3,27.58,P77,1.360,P92,-42.61,P5,-2.026,P3,27.65,P77,1.063,P63
10204,C94,,75.0%,Max,156.8,P2,2.904,P2,114.7,P8,9.858,P6,57.57,P4,1.948,P2,114.7,P8,57.60,P4
10204,C94,,75.0%,Min,-93.58,P3,-3.659,P3,29.51,P77,1.360,P92,-29.85,P5,-2.110,P3,29.57,P77,0.4288,P39
10204,C94,,83.3%,Max,156.8,P2,2.904,P2,117.3,P8,9.858,P6,91.79,P9,2.290,P2,117.3,P8,91.79,P9
10204,C94,,83.3%,Min,-93.58,P3,-3.659,P3,31.43,P77,1.360,P92,-18.05,P77,-2.195,P3,31.49,P77,1.680,P46
10204,C94,,91.7%,Max,156.8,P2,2.904,P2,119.9,P8,9.858,P6,129.8,P9,2.632,P2,119.9,P8,129.8,P9
10204,C94,,91.7%,Min,-93.58,P3,-3.659,P3,33.36,P77,1.360,P92,-7.020,P77,-2.280,P3,33.41,P77,0.6175,P74
10204,C94,6518,100.0%,Max,156.8,P2,2.904,P2,122.5,P8,9.858,P6,168.8,P8,2.974,P2,122.5,P8,168.8,P8
10204,C94,6518,100.0%,Min,-93.58,P3,-3.659,P3,35.28,P77,1.360,P92,4.667,P77,-2.365,P3,35.33,P77,4.910,P77
10296,C94,4884,0.0%,Max,456.5,P2,28.11,P2,-47.10,P4,-15.26,P2,350.9,P4,25.46,P2,207.7,P24,351.2,P4
10296,C94,4884,0.0%,Min,-410.5,P3,-39.47,P3,-207.2,P24,-50.43,P33,-59.92,P5,-36.11,P3,49.88,P4,40.47,P3
10296,C94,,5.0%,Max,456.5,P2,28.11,P2,-43.92,P4,-15.26,P2,295.0,P4,23.40,P2,203.4,P24,295.4,P4
10296,C94,,5.0%,Min,-410.5,P3,-39.47,P3,-202.9,P24,-50.43,P33,-75.33,P5,-30.21,P3,46.89,P4,48.98,P3
10296,C94,,10.0%,Max,456.5,P2,28.11,P2,-40.75,P4,-15.26,P2,240.3,P4,21.33,P2,199.1,P24,240.6,P4
10296,C94,,10.0%,Min,-410.5,P3,-39.47,P3,-198.6,P24,-50.43,P33,-89.66,P5,-24.31,P3,43.92,P4,31.37,P81
10296,C94,,15.0%,Max,456.5,P2,28.11,P2,-37.57,P4,-15.26,P2,186.6,P4,19.27,P2,194.9,P24,187.0,P4
10296,C94,,15.0%,Min,-410.5,P3,-39.47,P3,-194.3,P24,-50.43,P33,-102.9,P5,-18.41,P3,40.99,P4,7.131,P81
10296,C94,,20.0%,Max,456.5,P2,28.11,P2,-34.39,P4,-15.26,P2,134.0,P4,17.21,P2,190.6,P24,134.5,P4
10296,C94,,20.0%,Min,-410.5,P3,-39.47,P3,-190.0,P24,-50.43,P33,-115.1,P5,-12.52,P3,38.10,P4,0.4598,P71
10296,C94,,20.0%,Max,438.1,P2,13.80,P2,-5.943,P4,-11.02,P2,119.3,P4,8.953,P2,127.6,P24,119.5,P4
10296,C94,,20.0%,Min,-396.2,P3,-9.000,P3,-127.6,P24,-34.23,P32,-119.3,P5,-7.017,P3,13.31,P4,0.7303,P69
10296,C94,,25.0%,Max,438.1,P2,13.80,P2,-2.764,P4,-11.02,P2,78.15,P4,8.019,P2,123.3,P24,121.0,P5
10296,C94,,25.0%,Min,-396.2,P3,-9.000,P3,-123.3,P24,-34.23,P32,-120.8,P5,-7.703,P3,12.23,P4,2.088,P36
10296,C94,,30.0%,Max,438.1,P2,13.80,P2,0.4140,P4,-11.02,P2,38.09,P4,7.084,P2,119.0,P24,121.6,P5
10296,C94,,30.0%,Min,-396.2,P3,-9.000,P3,-119.0,P24,-34.23,P32,-121.4,P5,-8.389,P3,11.92,P4,12.49,P60
10296,C94,,35.0%,Max,438.1,P2,13.80,P2,3.592,P4,-11.02,P2,-0.8978,P4,6.149,P2,114.7,P24,126.6,P6
10296,C94,,35.0%,Min,-396.2,P3,-9.000,P3,-114.7,P24,-34.23,P32,-126.5,P6,-9.075,P3,12.44,P4,4.949,P4
10296,C94,,40.0%,Max,438.1,P2,13.80,P2,6.770,P4,-11.02,P2,-38.81,P4,5.214,P2,111.3,P5,161.3,P6
10296,C94,,40.0%,Min,-396.2,P3,-9.000,P3,-111.0,P5,-34.23,P32,-161.2,P6,-9.761,P3,13.70,P4,39.01,P4
10296,C94,,40.0%,Max,428.5,P2,13.83,P2,71.65,P4,14.60,P33,-50.25,P4,8.084,P2,72.71,P4,174.5,P33
10296,C94,,40.0%,Min,-380.6,P3,-8.779,P3,-52.12,P5,4.594,P3,-174.5,P33,-6.581,P3,2.179,P92,50.78,P4
10296,C94,,45.0%,Max,428.5,P2,13.83,P2,74.83,P4,14.60,P33,-42.96,P4,7.409,P2,75.84,P4,165.0,P33
10296,C94,,45.0%,Min,-380.6,P3,-8.779,P3,-48.94,P5,4.594,P3,-165.0,P33,-7.613,P3,3.538,P90,43.45,P4
10296,C94,,50.0%,Max,428.5,P2,13.83,P2,78.01,P4,14.60,P33,-34.59,P4,6.735,P2,78.98,P4,154.1,P33
10296,C94,,50.0%,Min,-380.6,P3,-8.779,P3,-45.76,P5,4.594,P3,-154.1,P33,-8.645,P3,6.007,P36,35.06,P4
10296,C94,,55.0%,Max,428.5,P2,13.83,P2,81.19,P4,14.60,P33,-25.15,P4,6.061,P2,82.12,P4,142.3,P22
10296,C94,,55.0%,Min,-380.6,P3,-8.779,P3,-42.58,P5,4.594,P3,-142.3,P22,-9.676,P3,8.280,P64,25.63,P4
10296,C94,,60.0%,Max,428.5,P2,13.83,P2,84.37,P4,14.60,P33,-14.63,P4,5.387,P2,85.26,P4,130.9,P22
10296,C94,,60.0%,Min,-380.6,P3,-8.779,P3,-39.40,P5,4.594,P3,-130.9,P22,-10.71,P3,9.838,P60,15.22,P4
10296,C94,,60.0%,Max,410.4,P2,10.49,P2,151.3,P6,28.70,P33,-12.20,P4,5.622,P2,151.4,P6,138.0,P22
10296,C94,,60.0%,Min,-357.1,P3,-6.914,P3,10.97,P5,8.254,P3,-138.0,P22,-5.081,P3,12.28,P5,13.18,P4
10296,C94,,65.0%,Max,410.4,P2,10.49,P2,155.6,P6,28.70,P33,33.46,P4,5.306,P2,155.7,P6,117.2,P5
10296,C94,,65.0%,Min,-357.1,P3,-6.914,P3,14.15,P5,8.254,P3,-117.1,P5,-5.972,P3,15.19,P5,10.24,P2
10296,C94,,70.0%,Max,410.4,P2,10.49,P2,159.9,P6,28.70,P33,80.19,P4,4.989,P2,160.0,P6,111.8,P5
10296,C94,,70.0%,Min,-357.1,P3,-6.914,P3,17.33,P5,8.254,P3,-111.6,P5,-6.863,P3,18.19,P5,2.494,P81
10296,C94,,75.0%,Max,410.4,P2,10.49,P2,164.2,P6,28.70,P33,128.0,P4,4.673,P2,164.3,P6,128.1,P4
10296,C94,,75.0%,Min,-357.1,P3,-6.914,P3,20.51,P5,8.254,P3,-105.2,P5,-7.755,P3,21.24,P5,0.3521,P41
10296,C94,,80.0%,Max,410.4,P2,10.49,P2,168.5,P6,28.70,P33,176.9,P4,4.357,P2,168.6,P6,176.9,P4
10296,C94,,80.0%,Min,-357.1,P3,-6.914,P3,23.69,P5,8.254,P3,-97.58,P5,-8.646,P3,24.32,P5,6.434,P58
10296,C94,,80.0%,Max,387.3,P2,9.724,P2,184.1,P6,40.34,P33,189.2,P4,7.414,P2,184.2,P6,189.3,P4
10296,C94,,80.0%,Min,-320.4,P3,-2.222,P3,31.27,P5,11.73,P3,-95.93,P5,-4.770,P3,31.28,P5,10.51,P58
10296,C94,,85.0%,Max,387.3,P2,9.724,P2,188.4,P6,40.34,P33,242.3,P4,5.536,P2,188.5,P6,242.4,P4
10296,C94,,85.0%,Min,-320.4,P3,-2.222,P3,34.45,P5,11.73,P3,-84.80,P5,-5.425,P3,34.45,P5,32.48,P58
10296,C94,,90.0%,Max,387.3,P2,9.724,P2,192.7,P6,40.34,P33,296.5,P4,3.659,P2,192.7,P6,296.5,P4
10296,C94,,90.0%,Min,-320.4,P3,-2.222,P3,37.63,P5,11.73,P3,-72.61,P5,-6.079,P3,37.63,P5,22.58,P3
10296,C94,,95.0%,Max,387.3,P2,9.724,P2,196.9,P6,40.34,P33,351.7,P4,1.781,P2,197.0,P6,351.7,P4
10296,C94,,95.0%,Min,-320.4,P3,-2.222,P3,40.81,P5,11.73,P3,-59.34,P5,-6.734,P3,40.81,P5,7.354,P3
10296,C94,4885,100.0%,Max,387.3,P2,9.724,P2,201.2,P6,40.34,P33,408.1,P4,-0.09712,P2,201.3,P6,408.1,P4
10296,C94,4885,100.0%,Min,-320.4,P3,-2.222,P3,43.99,P5,11.73,P3,-44.99,P5,-7.389,P3,43.99,P5,18.46,P3
10299,C94,4877,0.0%,Max,450.2,P2,45.23,P2,-45.34,P4,24.19,P33,378.4,P4,39.55,P2,210.1,P22,379.3,P4
10299,C94,4877,0.0%,Min,-444.0,P3,-43.52,P3,-210.0,P22,7.302,P3,-62.28,P5,-36.99,P3,54.16,P4,37.80,P3
10299,C94,,4.6%,Max,450.2,P2,45.23,P2,-42.43,P4,24.19,P33,324.5,P4,33.86,P2,206.2,P22,325.3,P4
10299,C94,,4.6%,Min,-444.0,P3,-43.52,P3,-206.1,P22,7.302,P3,-75.87,P5,-31.82,P3,51.75,P4,41.72,P3
10299,C94,,9.1%,Max,450.2,P2,45.23,P2,-39.53,P4,24.19,P33,271.6,P4,28.17,P2,202.3,P22,272.2,P4
10299,C94,,9.1%,Min,-444.0,P3,-43.52,P3,-202.2,P22,7.302,P3,-88.58,P5,-26.66,P3,49.40,P4,52.54,P3
10299,C94,,13.7%,Max,450.2,P2,45.23,P2,-36.62,P4,24.19,P33,219.5,P4,22.49,P2,198.3,P22,220.0,P4
10299,C94,,13.7%,Min,-444.0,P3,-43.52,P3,-198.3,P22,7.302,P3,-100.4,P5,-21.50,P3,47.10,P4,32.49,P57
10299,C94,,18.3%,Max,450.2,P2,45.23,P2,-33.71,P4,24.19,P33,168.4,P4,16.80,P2,194.4,P22,168.7,P4
10299,C94,,18.3%,Min,-444.0,P3,-43.52,P3,-194.3,P22,7.302,P3,-111.3,P5,-16.34,P3,44.88,P4,8.567,P57
10299,C94,,18.3%,Max,429.5,P2,13.17,P2,-24.10,P4,7.124,P33,157.8,P4,9.360,P2,169.2,P22,158.0,P4
10299,C94,,18.3%,Min,-429.1,P3,-17.37,P3,-169.2,P22,0.5175,P3,-111.9,P5,-10.65,P3,26.09,P4,4.000,P57
10299,C94,,22.9%,Max,429.5,P2,13.17,P2,-21.19,P4,7.124,P33,111.8,P4,9.728,P2,165.3,P22,119.3,P5
10299,C94,,22.9%,Min,-429.1,P3,-17.37,P3,-165.2,P22,0.5175,P3,-119.1,P5,-9.723,P3,23.43,P4,0.3392,P27
10299,C94,,27.4%,Max,429.5,P2,13.17,P2,-18.29,P4,7.124,P33,66.74,P4,10.10,P2,161.3,P22,125.5,P5
10299,C94,,27.4%,Min,-429.1,P3,-17.37,P3,-161.3,P22,0.5175,P3,-125.3,P5,-8.793,P3,20.84,P4,8.453,P58
10299,C94,,32.0%,Max,429.5,P2,13.17,P2,-15.38,P4,7.124,P33,22.57,P4,10.46,P2,157.4,P22,130.9,P5
10299,C94,,32.0%,Min,-429.1,P3,-17.37,P3,-157.4,P22,0.5175,P3,-130.7,P5,-7.863,P3,18.34,P4,14.11,P2
10299,C94,,36.6%,Max,429.5,P2,13.17,P2,-12.47,P4,7.124,P33,-20.71,P4,10.83,P2,153.5,P22,154.9,P33
10299,C94,,36.6%,Min,-429.1,P3,-17.37,P3,-153.5,P22,0.5175,P3,-154.9,P33,-6.934,P3,15.98,P4,22.33,P4
10299,C94,,36.6%,Max,415.4,P2,9.530,P2,40.93,P4,-0.08572,P2,-30.86,P4,5.383,P2,91.31,P5,164.8,P33
10299,C94,,36.6%,Min,-411.6,P3,-12.41,P3,-90.74,P5,-6.787,P22,-164.8,P33,-5.760,P3,16.71,P57,31.23,P4
10299,C94,,41.2%,Max,415.4,P2,9.530,P2,43.84,P4,-0.08572,P2,-43.10,P4,6.446,P2,88.42,P5,176.8,P33
10299,C94,,41.2%,Min,-411.6,P3,-12.41,P3,-87.84,P5,-6.787,P22,-176.8,P33,-5.935,P3,13.81,P57,43.44,P4
10299,C94,,45.7%,Max,415.4,P2,9.530,P2,46.75,P4,-0.08572,P2,-54.43,P4,7.509,P2,85.53,P5,187.6,P33
10299,C94,,45.7%,Min,-411.6,P3,-12.41,P3,-84.93,P5,-6.787,P22,-187.6,P33,-6.109,P3,10.91,P57,54.77,P4
10299,C94,,50.3%,Max,415.4,P2,9.530,P2,49.65,P4,-0.08572,P2,-64.87,P4,8.572,P2,82.64,P5,197.1,P33
10299,C94,,50.3%,Min,-411.6,P3,-12.41,P3,-82.02,P5,-6.787,P22,-197.1,P33,-6.283,P3,8.012,P57,65.22,P4
10299,C94,,54.9%,Max,415.4,P2,9.530,P2,52.56,P4,-0.08572,P2,-74.41,P4,9.635,P2,79.76,P5,205.8,P31
10299,C94,,54.9%,Min,-411.6,P3,-12.41,P3,-79.12,P5,-6.787,P22,-205.7,P31,-6.458,P3,5.130,P57,74.78,P4
10299,C94,,54.9%,Max,395.4,P2,10.36,P2,146.8,P33,-0.05367,P2,-68.91,P4,8.134,P4,146.8,P33,208.6,P22
10299,C94,,54.9%,Min,-385.0,P3,-13.45,P3,8.498,P5,-10.58,P33,-208.6,P22,-9.183,P5,15.29,P5,69.39,P4
10299,C94,,60.5%,Max,395.4,P2,10.36,P2,151.6,P33,-0.05367,P2,-15.81,P4,8.830,P2,151.6,P33,154.7,P22
10299,C94,,60.5%,Min,-385.0,P3,-13.45,P3,12.08,P5,-10.58,P33,-154.7,P22,-8.701,P3,17.54,P5,18.02,P4
10299,C94,,66.2%,Max,395.4,P2,10.36,P2,156.5,P33,-0.05367,P2,38.66,P4,9.728,P2,156.5,P33,135.6,P5
10299,C94,,66.2%,Min,-385.0,P3,-13.45,P3,15.67,P5,-10.58,P33,-135.4,P5,-8.421,P3,20.17,P5,13.25,P2
10299,C94,,71.8%,Max,395.4,P2,10.36,P2,161.3,P33,-0.05367,P2,94.50,P4,10.63,P2,161.3,P33,128.4,P5
10299,C94,,71.8%,Min,-385.0,P3,-13.45,P3,19.25,P5,-10.58,P33,-128.2,P5,-8.142,P3,23.07,P5,9.030,P81
10299,C94,,77.4%,Max,395.4,P2,10.36,P2,166.2,P33,-0.05367,P2,151.7,P4,11.53,P2,166.2,P33,152.0,P4
10299,C94,,77.4%,Min,-385.0,P3,-13.45,P3,22.84,P5,-10.58,P33,-119.6,P5,-7.862,P3,26.14,P5,1.317,P63
10299,C94,,77.4%,Max,373.8,P2,4.980,P69,223.7,P33,2.642,P2,171.5,P4,4.867,P2,223.7,P33,171.6,P4
10299,C94,,77.4%,Min,-346.4,P3,-7.296,P5,51.72,P5,-9.325,P3,-114.7,P5,-6.965,P3,52.23,P5,4.477,P58
10299,C94,,83.1%,Max,373.8,P2,4.980,P69,228.5,P33,2.642,P2,241.1,P4,5.356,P2,228.5,P33,241.1,P4
10299,C94,,83.1%,Min,-346.4,P3,-7.296,P5,55.30,P5,-9.325,P3,-94.25,P5,-5.812,P3,55.78,P5,38.07,P58
10299,C94,,88.7%,Max,373.8,P2,4.980,P69,233.4,P33,2.642,P2,312.0,P4,5.845,P2,233.4,P33,312.1,P4
10299,C94,,88.7%,Min,-346.4,P3,-7.296,P5,58.89,P5,-9.325,P3,-72.44,P5,-4.659,P3,59.34,P5,14.12,P3
10299,C94,,94.4%,Max,373.8,P2,4.980,P69,238.2,P33,2.642,P2,384.3,P4,6.334,P2,238.2,P33,384.4,P4
10299,C94,,94.4%,Min,-346.4,P3,-7.296,P5,62.47,P5,-9.325,P3,-49.25,P5,-3.507,P3,62.90,P5,17.02,P3
10299,C94,4878,100.0%,Max,373.8,P2,4.980,P69,243.1,P33,2.642,P2,458.0,P4,6.978,P4,243.1,P33,458.0,P4
10299,C94,4878,100.0%,Min,-346.4,P3,-7.296,P5,66.06,P5,-9.325,P3,-24.70,P5,-4.709,P69,66.46,P5,24.83,P5
10323,C94,4881,0.0%,Max,233.6,P2,30.81,P2,-68.43,P79,0.07568,P57,548.3,P9,30.84,P2,336.1,P8,548.4,P9
10323,C94,4881,0.0%,Min,-316.7,P3,-17.86,P3,-335.9,P8,-9.100,P13,-77.62,P5,-16.65,P3,68.53,P79,3.542,P55
10323,C94,,6.3%,Max,233.6,P2,30.81,P2,-64.12,P79,0.07568,P57,398.1,P9,27.18,P2,330.3,P8,398.1,P9
10323,C94,,6.3%,Min,-316.7,P3,-17.86,P3,-330.1,P8,-9.100,P13,-114.9,P5,-18.93,P3,64.22,P79,6.431,P73
10323,C94,,12.5%,Max,233.6,P2,30.81,P2,-59.80,P79,0.07568,P57,265.6,P82,23.52,P2,324.4,P8,265.6,P82
10323,C94,,12.5%,Min,-316.7,P3,-17.86,P3,-324.3,P8,-9.100,P13,-150.1,P5,-21.21,P3,59.91,P79,11.01,P43
10323,C94,,18.8%,Max,233.6,P2,30.81,P2,-55.48,P79,0.07568,P57,170.1,P82,19.85,P2,318.6,P8,183.9,P5
10323,C94,,18.8%,Min,-316.7,P3,-17.86,P3,-318.5,P8,-9.100,P13,-183.4,P5,-23.48,P3,55.60,P79,6.290,P49
10323,C94,,25.0%,Max,233.6,P2,30.81,P2,-51.16,P79,0.07568,P57,76.53,P82,16.19,P2,312.8,P8,230.8,P7
10323,C94,,25.0%,Min,-316.7,P3,-17.86,P3,-312.6,P8,-9.100,P13,-230.7,P7,-25.76,P3,51.29,P79,6.093,P38
10323,C94,,25.0%,Max,215.5,P2,16.60,P2,-15.29,P79,-7.561,P57,44.21,P82,13.17,P2,219.0,P9,256.7,P7
10323,C94,,25.0%,Min,-296.7,P3,-10.63,P3,-218.9,P9,-26.53,P25,-256.7,P7,-7.963,P3,15.30,P79,9.336,P90
10323,C94,,31.2%,Max,215.5,P2,16.60,P2,-10.97,P79,-7.561,P57,-29.74,P82,12.79,P2,213.2,P9,303.7,P7
10323,C94,,31.2%,Min,-296.7,P3,-10.63,P3,-213.1,P9,-26.53,P25,-303.7,P7,-10.31,P3,10.98,P79,29.76,P82
10323,C94,,37.5%,Max,215.5,P2,16.60,P2,-6.650,P79,-7.561,P57,-101.7,P82,12.40,P2,207.3,P9,365.1,P6
10323,C94,,37.5%,Min,-296.7,P3,-10.63,P3,-207.3,P9,-26.53,P25,-365.1,P6,-12.67,P3,6.669,P79,101.7,P82
10323,C94,,43.7%,Max,215.5,P2,16.60,P2,-2.332,P79,-7.561,P57,-165.1,P68,12.02,P2,201.5,P9,425.1,P6
10323,C94,,43.7%,Min,-296.7,P3,-10.63,P3,-201.4,P9,-26.53,P25,-425.1,P6,-15.02,P3,2.386,P79,165.1,P68
10323,C94,,50.0%,Max,215.5,P2,16.60,P2,1.986,P79,-7.561,P57,-195.5,P81,11.63,P2,195.7,P9,503.1,P8
10323,C94,,50.0%,Min,-296.7,P3,-10.63,P3,-195.6,P9,-26.53,P25,-503.0,P8,-17.37,P3,0.9720,P78,195.5,P81
10323,C94,,50.0%,Max,192.1,P2,12.91,P2,247.0,P7,23.08,P24,-181.2,P79,11.93,P2,247.0,P7,495.1,P8
10323,C94,,50.0%,Min,-271.5,P3,-11.94,P3,7.220,P82,5.027,P57,-495.1,P8,-11.08,P3,7.833,P82,181.3,P79
10323,C94,,56.2%,Max,192.1,P2,12.91,P2,252.8,P7,23.08,P24,-108.3,P79,11.67,P2,252.9,P7,413.5,P8
10323,C94,,56.2%,Min,-271.5,P3,-11.94,P3,11.54,P82,5.027,P57,-413.5,P8,-11.27,P3,11.93,P82,108.3,P79
10323,C94,,62.5%,Max,192.1,P2,12.91,P2,258.6,P7,23.08,P24,-33.32,P79,11.41,P2,258.7,P7,333.0,P9
10323,C94,,62.5%,Min,-271.5,P3,-11.94,P3,15.86,P82,5.027,P57,-333.0,P9,-11.46,P3,16.14,P82,33.32,P79
10323,C94,,68.7%,Max,192.1,P2,12.91,P2,264.5,P7,23.08,P24,43.61,P79,11.15,P2,264.5,P7,265.5,P9
10323,C94,,68.7%,Min,-271.5,P3,-11.94,P3,20.17,P82,5.027,P57,-265.5,P9,-11.64,P3,20.40,P82,4.914,P77
10323,C94,,75.0%,Max,192.1,P2,12.91,P2,270.3,P7,23.08,P24,127.7,P4,10.88,P2,270.3,P7,217.7,P82
10323,C94,,75.0%,Min,-271.5,P3,-11.94,P3,24.49,P82,5.027,P57,-217.7,P82,-11.83,P3,24.68,P82,1.698,P43
10323,C94,,75.0%,Max,183.3,P2,16.05,P81,369.5,P6,7.812,P13,165.0,P4,12.07,P57,369.5,P6,211.6,P82
10323,C94,,75.0%,Min,-268.3,P3,-17.52,P85,62.63,P82,-1.920,P57,-211.4,P82,-13.48,P61,64.34,P82,3.045,P53
10323,C94,,81.2%,Max,183.3,P2,16.05,P81,375.3,P6,7.812,P13,286.0,P7,9.682,P4,375.4,P6,286.0,P7
10323,C94,,81.2%,Min,-268.3,P3,-17.52,P85,66.95,P82,-1.920,P57,-181.6,P82,-11.17,P5,68.55,P82,1.321,P67
10323,C94,,87.5%,Max,183.3,P2,16.05,P81,381.1,P6,7.812,P13,455.8,P7,10.90,P4,381.2,P6,455.8,P7
10323,C94,,87.5%,Min,-268.3,P3,-17.52,P85,71.27,P82,-1.920,P57,-149.9,P82,-12.26,P5,72.78,P82,9.324,P37
10323,C94,,93.7%,Max,183.3,P2,16.05,P81,387.0,P6,7.812,P13,628.1,P7,12.12,P4,387.0,P6,628.2,P7
10323,C94,,93.7%,Min,-268.3,P3,-17.52,P85,75.59,P82,-1.920,P57,-116.3,P82,-13.34,P5,77.01,P82,0.2396,P68
10323,C94,5223,100.0%,Max,183.3,P2,16.05,P81,392.8,P6,7.812,P13,803.2,P7,18.75,P85,392.8,P6,803.3,P7
10323,C94,5223,100.0%,Min,-268.3,P3,-17.52,P85,79.91,P82,-1.920,P57,-80.60,P82,-17.58,P81,81.25,P82,12.00,P93
10324,C94,5223,0.0%,Max,131.7,P2,53.83,P2,314.4,P4,4.745,P57,618.6,P82,36.67,P2,316.7,P4,618.6,P82
10324,C94,5223,0.0%,Min,-152.4,P3,-29.63,P69,-251.6,P5,-16.95,P13,-545.6,P5,-21.55,P69,18.24,P20,8.596,P18
10324,C94,,12.5%,Max,131.7,P2,53.83,P2,317.0,P4,4.745,P57,556.7,P82,30.17,P2,319.3,P4,556.7,P82
10324,C94,,12.5%,Min,-152.4,P3,-29.63,P69,-249.0,P5,-16.95,P13,-463.8,P5,-16.01,P3,17.47,P51,6.107,P19
10324,C94,,25.0%,Max,131.7,P2,53.83,P2,319.6,P4,4.745,P57,495.6,P82,23.67,P2,321.8,P4,495.6,P82
10324,C94,,25.0%,Min,-152.4,P3,-29.63,P69,-246.4,P5,-16.95,P13,-381.3,P5,-18.37,P3,16.83,P51,14.53,P19
10324,C94,,37.5%,Max,131.7,P2,53.83,P2,322.2,P4,4.745,P57,435.2,P82,17.17,P2,324.4,P4,435.2,P82
10324,C94,,37.5%,Min,-152.4,P3,-29.63,P69,-243.8,P5,-16.95,P13,-298.0,P5,-20.72,P3,16.57,P51,10.83,P42
10324,C94,,50.0%,Max,131.7,P2,53.83,P2,324.8,P4,4.745,P57,376.2,P83,11.23,P69,327.0,P4,376.3,P83
10324,C94,,50.0%,Min,-152.4,P3,-29.63,P69,-241.2,P5,-16.95,P13,-217.3,P79,-23.08,P3,16.62,P50,0.8371,P42
10324,C94,,50.0%,Max,128.6,P2,36.20,P2,290.8,P4,19.49,P21,371.8,P83,12.39,P2,292.0,P4,371.8,P83
10324,C94,,50.0%,Min,-152.8,P3,-19.04,P3,-259.3,P5,-1.480,P61,-201.5,P79,-7.675,P3,1.449,P33,0.5502,P43
10324,C94,,62.5%,Max,128.6,P2,36.20,P2,293.4,P4,19.49,P21,311.5,P85,12.69,P2,294.6,P4,311.5,P85
10324,C94,,62.5%,Min,-152.8,P3,-19.04,P3,-256.7,P5,-1.480,P61,-165.5,P5,-12.72,P3,1.565,P32,7.293,P43
10324,C94,,75.0%,Max,128.6,P2,36.20,P2,296.0,P4,19.49,P21,281.4,P4,12.99,P2,297.2,P4,281.5,P4
10324,C94,,75.0%,Min,-152.8,P3,-19.04,P3,-254.1,P5,-1.480,P61,-135.5,P5,-17.76,P3,2.041,P32,6.733,P7
10324,C94,,87.5%,Max,128.6,P2,36.20,P2,298.6,P4,19.49,P21,308.2,P2,13.29,P2,299.8,P4,308.5,P2
10324,C94,,87.5%,Min,-152.8,P3,-19.04,P3,-251.5,P5,-1.480,P61,-150.0,P3,-22.81,P3,5.531,P32,8.587,P77
10324,C94,4992,100.0%,Max,128.6,P2,36.20,P2,301.2,P4,19.49,P21,347.5,P2,13.59,P2,302.4,P4,347.8,P2
10324,C94,4992,100.0%,Min,-152.8,P3,-19.04,P3,-248.9,P5,-1.480,P61,-175.6,P3,-27.85,P3,8.988,P21,1.740,P55
10329,C94,5244,0.0%,Max,120.1,P2,26.88,P2,319.7,P2,20.90,P9,649.3,P58,17.03,P2,320.8,P2,649.4,P58
10329,C94,5244,0.0%,Min,-158.3,P3,-68.81,P3,-253.4,P3,-2.046,P57,-495.8,P5,-47.17,P3,3.881,P69,5.539,P43
10329,C94,,12.5%,Max,120.1,P2,26.88,P2,322.3,P2,20.90,P9,581.0,P58,20.04,P2,323.4,P2,581.0,P58
10329,C94,,12.5%,Min,-158.3,P3,-68.81,P3,-250.8,P3,-2.046,P57,-417.7,P5,-38.59,P3,1.293,P69,8.533,P32
10329,C94,,25.0%,Max,120.1,P2,26.88,P2,324.9,P2,20.90,P9,513.4,P58,23.06,P2,326.0,P2,513.4,P58
10329,C94,,25.0%,Min,-158.3,P3,-68.81,P3,-248.2,P3,-2.046,P57,-338.8,P5,-30.01,P3,1.357,P69,17.93,P43
10329,C94,,37.5%,Max,120.1,P2,26.88,P2,327.5,P2,20.90,P9,446.5,P58,26.07,P2,328.6,P2,446.5,P58
10329,C94,,37.5%,Min,-158.3,P3,-68.81,P3,-245.6,P3,-2.046,P57,-259.1,P5,-21.43,P3,2.114,P68,5.183,P70
10329,C94,,50.0%,Max,120.1,P2,26.88,P2,330.1,P2,20.90,P9,380.3,P58,29.08,P2,331.2,P2,380.4,P58
10329,C94,,50.0%,Min,-158.3,P3,-68.81,P3,-243.0,P3,-2.046,P57,-186.8,P81,-12.85,P3,1.154,P68,5.247,P72
10329,C94,,50.0%,Max,119.8,P2,26.38,P2,295.1,P2,1.157,P85,371.8,P58,9.479,P2,296.2,P2,371.9,P58
10329,C94,,50.0%,Min,-165.9,P3,-52.70,P3,-256.8,P3,-16.09,P21,-171.2,P81,-17.79,P3,7.738,P42,1.711,P74
10329,C94,,62.5%,Max,119.8,P2,26.38,P2,297.7,P2,1.157,P85,305.8,P10,17.27,P2,298.8,P2,305.8,P10
10329,C94,,62.5%,Min,-165.9,P3,-52.70,P3,-254.2,P3,-16.09,P21,-128.5,P5,-18.30,P3,9.801,P69,9.754,P77
10329,C94,,75.0%,Max,119.8,P2,26.38,P2,300.3,P2,1.157,P85,295.9,P2,25.06,P2,301.4,P2,297.0,P2
10329,C94,,75.0%,Min,-165.9,P3,-52.70,P3,-251.6,P3,-16.09,P21,-120.4,P3,-18.81,P3,7.206,P69,3.734,P44
10329,C94,,87.5%,Max,119.8,P2,26.38,P2,302.9,P2,1.157,P85,326.0,P2,32.85,P2,304.0,P2,327.6,P2
10329,C94,,87.5%,Min,-165.9,P3,-52.70,P3,-249.0,P3,-16.09,P21,-136.3,P3,-19.32,P3,4.620,P69,5.356,P79
10329,C94,4993,100.0%,Max,119.8,P2,26.38,P2,305.5,P2,1.157,P85,356.8,P2,40.64,P2,306.6,P2,359.1,P2
10329,C94,4993,100.0%,Min,-165.9,P3,-52.70,P3,-246.4,P3,-16.09,P21,-151.5,P3,-19.83,P3,2.079,P69,21.56,P56
10330,C94,4886,0.0%,Max,205.4,P2,25.54,P2,-99.63,P81,-6.237,P2,633.1,P10,19.65,P2,414.1,P22,633.1,P10
10330,C94,4886,0.0%,Min,-297.5,P3,-42.73,P3,-414.0,P22,-28.46,P32,-32.78,P5,-35.05,P3,99.68,P81,2.819,P56
10330,C94,,4.4%,Max,205.4,P2,25.54,P2,-96.62,P81,-6.237,P2,505.0,P10,19.66,P2,410.0,P22,505.0,P10
10330,C94,,4.4%,Min,-297.5,P3,-42.73,P3,-409.9,P22,-28.46,P32,-71.13,P5,-29.57,P3,96.66,P81,9.074,P78
10330,C94,,8.7%,Max,205.4,P2,25.54,P2,-93.61,P81,-6.237,P2,378.2,P10,19.67,P2,406.0,P22,378.2,P10
10330,C94,,8.7%,Min,-297.5,P3,-42.73,P3,-405.8,P22,-28.46,P32,-108.5,P5,-24.08,P3,93.65,P81,1.418,P55
10330,C94,,13.1%,Max,205.4,P2,25.54,P2,-90.59,P81,-6.237,P2,264.4,P58,19.68,P2,401.9,P22,264.4,P58
10330,C94,,13.1%,Min,-297.5,P3,-42.73,P3,-401.8,P22,-28.46,P32,-144.9,P5,-18.59,P3,90.64,P81,0.4236,P76
10330,C94,,17.4%,Max,205.4,P2,25.54,P2,-87.58,P81,-6.237,P2,187.4,P58,19.69,P2,397.8,P22,187.4,P58
10330,C94,,17.4%,Min,-297.5,P3,-42.73,P3,-397.7,P22,-28.46,P32,-180.4,P5,-13.10,P3,87.63,P81,16.60,P68
10330,C94,,17.4%,Max,191.4,P2,11.96,P2,-37.46,P81,20.18,P25,174.1,P58,6.918,P2,268.0,P10,183.0,P5
10330,C94,,17.4%,Min,-285.4,P3,-18.16,P3,-267.9,P10,7.110,P56,-182.9,P5,-11.46,P3,37.53,P81,23.28,P68
10330,C94,,21.8%,Max,191.4,P2,11.96,P2,-34.45,P81,20.18,P25,114.0,P58,8.175,P2,263.9,P10,197.3,P5
10330,C94,,21.8%,Min,-285.4,P3,-18.16,P3,-263.9,P10,7.110,P56,-197.2,P5,-10.74,P3,34.53,P81,0.5994,P51
10330,C94,,26.2%,Max,191.4,P2,11.96,P2,-31.44,P81,20.18,P25,54.91,P58,9.432,P2,259.9,P10,222.0,P7
10330,C94,,26.2%,Min,-285.4,P3,-18.16,P3,-259.8,P10,7.110,P56,-222.0,P7,-10.01,P3,31.52,P81,1.248,P39
10330,C94,,30.5%,Max,191.4,P2,11.96,P2,-28.43,P81,20.18,P25,-3.232,P58,10.69,P2,255.8,P10,271.6,P6
10330,C94,,30.5%,Min,-285.4,P3,-18.16,P3,-255.8,P10,7.110,P56,-271.6,P6,-9.283,P3,28.52,P81,4.174,P58
10330,C94,,34.9%,Max,191.4,P2,11.96,P2,-25.42,P81,20.18,P25,-60.41,P58,11.95,P2,251.7,P10,330.8,P6
10330,C94,,34.9%,Min,-285.4,P3,-18.16,P3,-251.7,P10,7.110,P56,-330.8,P6,-8.556,P3,25.52,P81,60.57,P58
10330,C94,,34.9%,Max,181.5,P2,13.74,P2,3.704,P81,48.30,P29,-72.78,P58,5.744,P2,182.1,P10,343.0,P6
10330,C94,,34.9%,Min,-280.5,P3,-26.50,P3,-181.7,P10,18.40,P56,-343.0,P6,-12.02,P3,5.120,P80,72.90,P58
10330,C94,,39.2%,Max,181.5,P2,13.74,P2,6.716,P81,48.30,P29,-119.1,P58,9.819,P2,178.0,P10,376.0,P6
10330,C94,,39.2%,Min,-280.5,P3,-26.50,P3,-177.7,P10,18.40,P56,-376.0,P6,-12.01,P3,5.078,P56,119.1,P58
10330,C94,,43.6%,Max,181.5,P2,13.74,P2,9.728,P81,48.30,P29,-164.4,P58,13.89,P2,173.9,P10,408.0,P33
10330,C94,,43.6%,Min,-280.5,P3,-26.50,P3,-173.6,P10,18.40,P56,-408.0,P33,-12.00,P3,5.005,P56,164.5,P58
10330,C94,,48.0%,Max,181.5,P2,13.74,P2,12.74,P81,48.30,P29,-183.0,P81,17.97,P2,169.9,P10,450.7,P8
10330,C94,,48.0%,Min,-280.5,P3,-26.50,P3,-169.5,P10,18.40,P56,-450.7,P8,-11.99,P3,3.890,P79,183.0,P81
10330,C94,,52.3%,Max,181.5,P2,13.74,P2,15.75,P81,48.30,P29,-178.4,P81,22.04,P2,165.8,P10,497.5,P22
10330,C94,,52.3%,Min,-280.5,P3,-26.50,P3,-165.5,P10,18.40,P56,-497.4,P22,-11.98,P3,2.909,P78,178.5,P81
10330,C94,,52.3%,Max,149.3,P2,12.54,P2,243.1,P6,-7.008,P57,-162.5,P81,10.94,P2,243.1,P6,476.5,P22
10330,C94,,52.3%,Min,-252.6,P3,-14.65,P3,8.631,P58,-25.30,P8,-476.5,P22,-12.97,P3,9.068,P58,162.5,P81
10330,C94,,58.3%,Max,149.3,P2,12.54,P2,248.7,P6,-7.008,P57,-92.81,P81,11.38,P2,248.7,P6,396.5,P22
10330,C94,,58.3%,Min,-252.6,P3,-14.65,P3,12.75,P58,-25.30,P8,-396.5,P22,-12.49,P3,13.05,P58,92.81,P81
10330,C94,,64.2%,Max,149.3,P2,12.54,P2,254.3,P6,-7.008,P57,-21.28,P81,11.83,P2,254.3,P6,323.1,P10
10330,C94,,64.2%,Min,-252.6,P3,-14.65,P3,16.87,P58,-25.30,P8,-323.1,P10,-12.01,P3,17.10,P58,21.28,P81
10330,C94,,70.2%,Max,149.3,P2,12.54,P2,259.8,P6,-7.008,P57,52.06,P81,12.27,P2,259.8,P6,257.8,P10
10330,C94,,70.2%,Min,-252.6,P3,-14.65,P3,20.99,P58,-25.30,P8,-257.8,P10,-11.53,P3,21.17,P58,7.498,P55
10330,C94,,76.2%,Max,149.3,P2,12.54,P2,265.4,P6,-7.008,P57,131.8,P4,12.72,P2,265.4,P6,220.7,P58
10330,C94,,76.2%,Min,-252.6,P3,-14.65,P3,25.11,P58,-25.30,P8,-220.7,P58,-11.05,P3,25.26,P58,3.654,P70
10330,C94,,76.2%,Max,138.4,P2,14.14,P84,370.0,P6,1.630,P57,166.6,P4,10.66,P84,370.1,P6,213.7,P58
10330,C94,,76.2%,Min,-256.4,P3,-13.69,P81,64.96,P58,-7.424,P85,-213.6,P58,-9.550,P81,65.62,P58,2.786,P68
10330,C94,,82.1%,Max,138.4,P2,14.14,P84,375.6,P6,1.630,P57,275.8,P4,10.67,P2,375.6,P6,275.9,P4
10330,C94,,82.1%,Min,-256.4,P3,-13.69,P81,69.08,P58,-7.424,P85,-184.3,P58,-9.371,P3,69.70,P58,0.1643,P66
10330,C94,,88.1%,Max,138.4,P2,14.14,P84,381.1,P6,1.630,P57,419.7,P7,11.69,P2,381.2,P6,419.7,P7
10330,C94,,88.1%,Min,-256.4,P3,-13.69,P81,73.19,P58,-7.424,P85,-153.2,P58,-10.49,P3,73.78,P58,1.948,P91
10330,C94,,94.0%,Max,138.4,P2,14.14,P84,386.7,P6,1.630,P57,581.2,P7,12.71,P2,386.7,P6,581.3,P7
10330,C94,,94.0%,Min,-256.4,P3,-13.69,P81,77.31,P58,-7.424,P85,-120.3,P58,-11.61,P3,77.87,P58,4.944,P36
10330,C94,5244,100.0%,Max,138.4,P2,14.14,P84,392.3,P6,1.630,P57,745.2,P7,14.41,P81,392.3,P6,745.2,P7
10330,C94,5244,100.0%,Min,-256.4,P3,-13.69,P81,81.43,P58,-7.424,P85,-85.55,P58,-14.09,P84,81.96,P58,20.93,P65
10851,C94,4993,0.0%,Max,127.6,P4,106.8,P2,-88.66,P2,-38.62,P2,368.9,P2,68.80,P2,419.8,P25,375.3,P2
10851,C94,4993,0.0%,Min,-98.89,P5,-58.07,P3,-417.6,P25,-102.1,P23,-129.0,P3,-37.14,P3,93.28,P81,6.506,P57
10851,C94,,6.4%,Max,127.6,P4,106.8,P2,-85.95,P2,-38.62,P2,284.7,P2,59.05,P2,416.2,P25,290.8,P2
10851,C94,,6.4%,Min,-98.89,P5,-58.07,P3,-414.0,P25,-102.1,P23,-159.7,P3,-41.40,P3,90.59,P81,1.073,P45
10851,C94,,12.9%,Max,127.6,P4,106.8,P2,-83.24,P2,-38.62,P2,201.3,P2,49.29,P2,412.5,P25,207.3,P2
10851,C94,,12.9%,Min,-98.89,P5,-58.07,P3,-410.3,P25,-102.1,P23,-189.5,P3,-45.66,P3,87.90,P81,1.107,P47
10851,C94,,19.3%,Max,127.6,P4,106.8,P2,-80.53,P2,-38.62,P2,118.7,P2,39.53,P2,408.9,P25,224.3,P3
10851,C94,,19.3%,Min,-98.89,P5,-58.07,P3,-406.6,P25,-102.1,P23,-218.6,P3,-49.93,P3,85.21,P81,33.79,P65
10851,C94,,25.7%,Max,127.6,P4,106.8,P2,-77.82,P2,-38.62,P2,36.88,P2,29.78,P2,405.3,P25,252.8,P3
10851,C94,,25.7%,Min,-98.89,P5,-58.07,P3,-403.0,P25,-102.1,P23,-247.0,P3,-54.19,P3,82.52,P81,40.27,P4
10851,C94,,25.7%,Max,186.4,P4,13.00,P2,145.1,P2,46.86,P6,21.64,P2,10.85,P2,145.7,P2,250.2,P3
10851,C94,,25.7%,Min,-132.1,P5,-14.98,P3,-74.22,P3,17.59,P84,-249.8,P3,-13.19,P3,3.603,P92,24.21,P2
10851,C94,,35.0%,Max,186.4,P4,13.00,P2,149.1,P2,46.86,P6,29.15,P2,11.11,P2,149.6,P2,226.5,P3
10851,C94,,35.0%,Min,-132.1,P5,-14.98,P3,-70.31,P3,17.59,P84,-226.2,P3,-12.62,P3,7.305,P92,8.360,P4
10851,C94,,44.3%,Max,186.4,P4,13.00,P2,153.0,P2,46.86,P6,38.29,P2,11.37,P2,153.5,P2,216.7,P10
10851,C94,,44.3%,Min,-132.1,P5,-14.98,P3,-66.39,P3,17.59,P84,-216.7,P10,-12.06,P3,4.291,P38,3.442,P80
10851,C94,,53.6%,Max,186.4,P4,13.00,P2,156.9,P2,46.86,P6,74.94,P4,11.63,P2,157.4,P2,205.9,P10
10851,C94,,53.6%,Min,-132.1,P5,-14.98,P3,-62.48,P3,17.59,P84,-205.9,P10,-11.49,P3,1.526,P38,2.121,P54
10851,C94,,62.9%,Max,186.4,P4,13.00,P2,160.8,P2,46.86,P6,118.0,P4,11.89,P2,161.3,P2,208.8,P58
10851,C94,,62.9%,Min,-132.1,P5,-14.98,P3,-58.56,P3,17.59,P84,-208.8,P58,-10.93,P3,2.951,P39,1.166,P71
10851,C94,,62.9%,Max,264.2,P4,18.78,P2,223.4,P7,24.48,P6,144.8,P4,12.80,P2,223.4,P7,209.2,P58
10851,C94,,62.9%,Min,-189.7,P5,-12.11,P3,-9.954,P3,6.714,P3,-209.1,P58,-8.186,P3,8.364,P5,3.861,P6
10851,C94,,72.1%,Max,264.2,P4,18.78,P2,228.7,P7,24.48,P6,226.3,P4,12.60,P2,228.7,P7,226.5,P4
10851,C94,,72.1%,Min,-189.7,P5,-12.11,P3,-6.038,P3,6.714,P3,-207.1,P58,-10.76,P3,9.679,P5,15.89,P68
10851,C94,,81.4%,Max,264.2,P4,18.78,P2,234.0,P7,24.48,P6,309.4,P4,12.40,P2,234.0,P7,309.5,P4
10851,C94,,81.4%,Min,-189.7,P5,-12.11,P3,-2.122,P3,6.714,P3,-203.5,P58,-13.33,P3,12.17,P5,2.060,P22
10851,C94,,90.7%,Max,264.2,P4,18.78,P2,239.3,P7,24.48,P6,394.1,P4,12.20,P2,239.3,P7,394.2,P4
10851,C94,,90.7%,Min,-189.7,P5,-12.11,P3,1.793,P3,6.714,P3,-198.2,P58,-15.91,P3,12.25,P3,6.930,P9
10851,C94,4837,100.0%,Max,264.2,P4,18.78,P2,244.6,P7,24.48,P6,480.5,P4,12.00,P2,244.6,P7,480.5,P4
10851,C94,4837,100.0%,Min,-189.7,P5,-12.11,P3,5.709,P3,6.714,P3,-191.3,P58,-18.48,P3,13.39,P3,16.47,P92
10852,C94,4837,0.0%,Max,469.8,P59,10.41,P2,319.5,P4,-2.305,P84,440.1,P58,10.00,P2,339.8,P58,440.2,P58
10852,C94,4837,0.0%,Min,-339.2,P81,-7.977,P3,-339.7,P58,-7.162,P6,-395.6,P5,-7.827,P3,2.018,P68,4.140,P69
10852,C94,,6.5%,Max,469.8,P59,10.41,P2,322.5,P4,-2.305,P84,332.9,P58,8.329,P2,336.8,P58,333.0,P58
10852,C94,,6.5%,Min,-339.2,P81,-7.977,P3,-336.7,P58,-7.162,P6,-294.4,P5,-6.927,P3,3.922,P68,1.594,P69
10852,C94,,12.9%,Max,469.8,P59,10.41,P2,325.4,P4,-2.305,P84,226.6,P58,6.657,P2,333.8,P58,226.7,P58
10852,C94,,12.9%,Min,-339.2,P81,-7.977,P3,-333.7,P58,-7.162,P6,-192.2,P5,-6.027,P3,6.672,P68,2.840,P1
10852,C94,,19.4%,Max,469.8,P59,10.41,P2,328.4,P4,-2.305,P84,121.3,P58,4.986,P2,330.8,P58,121.3,P58
10852,C94,,19.4%,Min,-339.2,P81,-7.977,P3,-330.7,P58,-7.162,P6,-89.13,P5,-5.126,P3,5.257,P53,0.8489,P43
10852,C94,,25.9%,Max,469.8,P59,10.41,P2,331.4,P4,-2.305,P84,40.13,P25,3.314,P2,331.5,P4,40.14,P25
10852,C94,,25.9%,Min,-339.2,P81,-7.977,P3,-327.7,P58,-7.162,P6,10.06,P57,-4.226,P3,3.023,P53,10.30,P57
10852,C94,,25.9%,Max,140.4,P59,18.22,P2,28.00,P81,-13.25,P60,69.36,P59,13.01,P25,87.91,P58,69.81,P59
10852,C94,,25.9%,Min,-44.77,P57,-6.927,P3,-87.53,P58,-34.90,P6,-32.78,P81,0.7516,P5,2.025,P54,4.226,P75
10852,C94,,32.3%,Max,140.4,P59,18.22,P2,30.98,P81,-13.25,P60,45.65,P4,11.24,P2,84.94,P58,46.97,P4
10852,C94,,32.3%,Min,-44.77,P57,-6.927,P3,-84.55,P58,-34.90,P6,-29.34,P5,-2.260,P3,2.527,P75,3.264,P71
10852,C94,,38.8%,Max,140.4,P59,18.22,P2,33.97,P81,-13.25,P60,33.92,P4,10.73,P2,81.97,P58,35.44,P4
10852,C94,,38.8%,Min,-44.77,P57,-6.927,P3,-81.56,P58,-34.90,P6,-29.64,P5,-5.334,P3,2.620,P74,2.254,P68
10852,C94,,45.3%,Max,140.4,P59,18.22,P2,36.95,P81,-13.25,P60,23.14,P4,10.22,P2,79.00,P58,30.00,P5
10852,C94,,45.3%,Min,-44.77,P57,-6.927,P3,-78.58,P58,-34.90,P6,-28.99,P5,-8.408,P3,3.312,P70,0.7433,P73
10852,C94,,51.7%,Max,140.4,P59,18.22,P2,39.94,P81,-13.25,P60,13.30,P4,9.716,P2,76.03,P58,36.47,P10
10852,C94,,51.7%,Min,-44.77,P57,-6.927,P3,-75.59,P58,-34.90,P6,-36.41,P10,-11.48,P3,3.881,P70,0.3853,P71
10852,C94,,51.8%,Max,131.7,P4,-26.56,P79,55.58,P7,18.68,P31,10.61,P61,-15.39,P79,85.16,P6,51.16,P24
10852,C94,,51.8%,Min,-60.44,P58,-78.82,P8,-43.60,P58,7.993,P53,-15.41,P21,-50.82,P24,33.30,P43,16.10,P2
10852,C94,,57.8%,Max,131.7,P4,-26.56,P79,59.34,P7,18.68,P31,16.22,P4,-5.389,P2,87.20,P6,27.80,P24
10852,C94,,57.8%,Min,-60.44,P58,-78.82,P8,-40.82,P58,7.993,P53,-13.84,P5,-27.56,P24,33.51,P50,7.616,P79
10852,C94,,63.8%,Max,131.7,P4,-26.56,P79,63.10,P7,18.68,P31,29.73,P4,5.216,P2,89.35,P6,30.08,P4
10852,C94,,63.8%,Min,-60.44,P58,-78.82,P8,-38.03,P58,7.993,P53,-18.16,P58,-8.847,P3,33.84,P67,1.907,P69
10852,C94,,69.8%,Max,131.7,P4,-26.56,P79,66.85,P7,18.68,P31,44.06,P4,19.11,P8,92.04,P7,46.62,P4
10852,C94,,69.8%,Min,-60.44,P58,-78.82,P8,-35.25,P58,7.993,P53,-28.99,P58,4.180,P3,33.88,P67,8.314,P50
10852,C94,,75.9%,Max,131.7,P4,-26.56,P79,70.61,P7,18.68,P31,60.33,P7,42.41,P8,94.80,P7,70.12,P7
10852,C94,,75.9%,Min,-60.44,P58,-78.82,P8,-32.47,P58,7.993,P53,-39.00,P58,16.01,P79,34.15,P67,18.49,P46
10852,C94,,75.9%,Max,278.1,P81,3.033,P2,194.6,P81,24.72,P22,75.98,P7,-0.3769,P2,281.0,P59,76.15,P7
10852,C94,,75.9%,Min,-257.7,P58,-9.567,P3,-281.0,P59,8.901,P5,-28.72,P58,-6.031,P31,9.360,P19,2.630,P92
10852,C94,,81.9%,Max,278.1,P81,3.033,P2,197.4,P81,24.72,P22,115.9,P4,1.643,P2,278.3,P59,116.0,P4
10852,C94,,81.9%,Min,-257.7,P58,-9.567,P3,-278.2,P59,8.901,P5,-102.4,P58,-5.186,P3,7.156,P69,1.563,P49
10852,C94,,87.9%,Max,278.1,P81,3.033,P2,200.2,P81,24.72,P22,172.6,P81,3.663,P2,275.5,P59,175.7,P59
10852,C94,,87.9%,Min,-257.7,P58,-9.567,P3,-275.5,P59,8.901,P5,-175.7,P59,-5.275,P3,5.114,P69,4.614,P52
10852,C94,,94.0%,Max,278.1,P81,3.033,P2,203.0,P81,24.72,P22,232.1,P81,5.683,P2,272.7,P59,256.7,P59
10852,C94,,94.0%,Min,-257.7,P58,-9.567,P3,-272.7,P59,8.901,P5,-256.7,P59,-5.364,P3,4.071,P69,3.245,P68
10852,C94,4820,100.0%,Max,278.1,P81,3.033,P2,205.8,P81,24.72,P22,292.6,P81,7.703,P2,269.9,P59,336.9,P59
10852,C94,4820,100.0%,Min,-257.7,P58,-9.567,P3,-269.9,P59,8.901,P5,-336.9,P59,-5.452,P3,4.399,P68,2.986,P68
10853,C94,4992,0.0%,Max,163.9,P4,65.82,P2,-106.0,P79,198.7,P25,362.6,P2,22.87,P2,517.8,P8,363.3,P2
10853,C94,4992,0.0%,Min,-117.1,P5,-139.2,P3,-515.5,P8,79.36,P3,-132.7,P3,-49.93,P3,109.5,P79,7.032,P55
10853,C94,,3.2%,Max,163.9,P4,65.82,P2,-104.7,P79,198.7,P25,313.8,P2,24.58,P2,516.0,P8,314.8,P2
10853,C94,,3.2%,Min,-117.1,P5,-139.2,P3,-513.6,P8,79.36,P3,-152.9,P3,-41.17,P3,108.2,P79,0.8294,P81
10853,C94,,6.4%,Max,163.9,P4,65.82,P2,-103.3,P79,198.7,P25,265.2,P2,26.29,P2,514.2,P8,266.5,P2
10853,C94,,6.4%,Min,-117.1,P5,-139.2,P3,-511.8,P8,79.36,P3,-172.9,P3,-32.42,P3,106.9,P79,2.705,P43
10853,C94,,9.7%,Max,163.9,P4,65.82,P2,-102.0,P79,198.7,P25,216.8,P2,28.01,P2,512.4,P8,218.6,P2
10853,C94,,9.7%,Min,-117.1,P5,-139.2,P3,-510.0,P8,79.36,P3,-192.8,P3,-23.66,P3,105.6,P79,3.904,P38
10853,C94,,12.9%,Max,163.9,P4,65.82,P2,-100.6,P79,198.7,P25,168.6,P2,29.72,P2,510.6,P8,212.9,P3
10853,C94,,12.9%,Min,-117.1,P5,-139.2,P3,-508.2,P8,79.36,P3,-212.4,P3,-14.91,P3,104.3,P79,3.210,P91
10853,C94,,12.9%,Max,204.6,P4,17.12,P2,95.72,P4,-9.980,P61,143.4,P2,12.45,P2,133.0,P3,231.3,P3
10853,C94,,12.9%,Min,-149.1,P5,-17.39,P3,-132.0,P5,-38.34,P33,-231.0,P3,-12.52,P3,0.3799,P51,1.272,P88
10853,C94,,20.1%,Max,204.6,P4,17.12,P2,98.75,P4,-9.980,P61,115.4,P2,11.86,P2,130.0,P3,213.9,P3
10853,C94,,20.1%,Min,-149.1,P5,-17.39,P3,-129.0,P5,-38.34,P33,-213.6,P3,-11.84,P3,1.889,P19,35.35,P89
10853,C94,,27.4%,Max,204.6,P4,17.12,P2,101.8,P4,-9.980,P61,88.29,P2,11.26,P2,127.0,P3,195.6,P3
10853,C94,,27.4%,Min,-149.1,P5,-17.39,P3,-126.0,P5,-38.34,P33,-195.3,P3,-11.16,P3,0.5823,P52,30.88,P81
10853,C94,,34.7%,Max,204.6,P4,17.12,P2,104.8,P4,-9.980,P61,62.18,P2,10.67,P2,124.0,P3,176.3,P3
10853,C94,,34.7%,Min,-149.1,P5,-17.39,P3,-122.9,P5,-38.34,P33,-176.0,P3,-10.48,P3,0.7946,P46,2.786,P79
10853,C94,,41.9%,Max,204.6,P4,17.12,P2,107.8,P4,-9.980,P61,49.76,P4,10.08,P2,121.0,P3,178.3,P9
10853,C94,,41.9%,Min,-149.1,P5,-17.39,P3,-119.9,P5,-38.34,P33,-178.3,P9,-9.805,P3,1.259,P47,1.117,P55
10853,C94,,41.9%,Max,269.0,P4,7.674,P2,155.8,P2,-6.123,P60,57.96,P4,3.962,P2,156.0,P2,178.9,P9
10853,C94,,41.9%,Min,-191.7,P5,-10.31,P3,-75.79,P3,-32.20,P33,-178.9,P9,-6.621,P3,2.959,P39,0.6584,P75
10853,C94,,49.2%,Max,269.0,P4,7.674,P2,158.8,P2,-6.123,P60,98.80,P4,4.700,P2,159.0,P2,185.8,P82
10853,C94,,49.2%,Min,-191.7,P5,-10.31,P3,-72.76,P3,-32.20,P33,-185.8,P82,-6.509,P3,3.420,P40,2.472,P57
10853,C94,,56.4%,Max,269.0,P4,7.674,P2,161.8,P2,-6.123,P60,140.6,P4,5.437,P2,162.0,P2,206.5,P82
10853,C94,,56.4%,Min,-191.7,P5,-10.31,P3,-69.73,P3,-32.20,P33,-206.5,P82,-6.397,P3,2.693,P34,1.212,P42
10853,C94,,63.7%,Max,269.0,P4,7.674,P2,164.9,P2,-6.123,P60,183.4,P4,6.175,P2,165.1,P2,226.6,P83
10853,C94,,63.7%,Min,-191.7,P5,-10.31,P3,-66.69,P3,-32.20,P33,-226.6,P83,-6.286,P3,2.637,P35,0.2385,P50
10853,C94,,71.0%,Max,269.0,P4,7.674,P2,167.9,P2,-6.123,P60,227.2,P4,6.913,P2,168.1,P2,246.5,P85
10853,C94,,71.0%,Min,-191.7,P5,-10.31,P3,-63.66,P3,-32.20,P33,-246.5,P85,-6.174,P3,4.099,P35,5.994,P1
10853,C94,,71.0%,Max,362.0,P4,25.61,P57,246.2,P7,-2.294,P2,244.6,P4,13.37,P57,246.2,P7,249.8,P85
10853,C94,,71.0%,Min,-258.5,P5,-44.56,P61,-30.93,P85,-21.38,P21,-249.1,P85,-21.24,P61,14.19,P93,7.810,P46
10853,C94,,78.2%,Max,362.0,P4,25.61,P57,250.3,P7,-2.294,P2,311.7,P4,13.56,P4,250.3,P7,312.0,P4
10853,C94,,78.2%,Min,-258.5,P5,-44.56,P61,-27.90,P85,-21.38,P21,-258.5,P85,-18.31,P5,12.61,P93,5.926,P27
10853,C94,,85.5%,Max,362.0,P4,25.61,P57,254.4,P7,-2.294,P2,379.7,P4,19.63,P4,254.4,P7,380.2,P4
10853,C94,,85.5%,Min,-258.5,P5,-44.56,P61,-24.87,P85,-21.38,P21,-267.0,P85,-17.30,P5,11.62,P93,4.491,P15
10853,C94,,92.7%,Max,362.0,P4,25.61,P57,258.5,P7,-2.294,P2,448.8,P4,25.69,P4,258.5,P7,449.5,P4
10853,C94,,92.7%,Min,-258.5,P5,-44.56,P61,-21.84,P85,-21.38,P21,-274.6,P85,-16.28,P5,11.38,P93,5.186,P66
10853,C94,4834,100.0%,Max,362.0,P4,25.61,P57,262.6,P7,-2.294,P2,524.8,P7,36.15,P61,262.6,P7,524.8,P7
10853,C94,4834,100.0%,Min,-258.5,P5,-44.56,P61,-18.81,P85,-21.38,P21,-281.1,P85,-19.61,P57,11.92,P93,19.76,P38
10854,C94,4834,0.0%,Max,545.0,P83,20.99,P2,442.3,P4,12.06,P57,538.1,P82,18.95,P2,442.7,P4,578.7,P5
10854,C94,4834,0.0%,Min,-454.5,P79,-21.14,P69,-392.1,P82,-6.536,P60,-578.7,P5,-21.39,P69,13.81,P26,13.84,P28
10854,C94,,7.2%,Max,545.0,P83,20.99,P2,445.7,P4,12.06,P57,399.2,P82,15.21,P2,446.1,P4,434.3,P5
10854,C94,,7.2%,Min,-454.5,P79,-21.14,P69,-388.7,P82,-6.536,P60,-434.3,P5,-13.86,P69,14.20,P23,8.850,P29
10854,C94,,14.4%,Max,545.0,P83,20.99,P2,450.2,P7,12.06,P57,261.4,P82,11.47,P2,450.3,P7,288.7,P5
10854,C94,,14.4%,Min,-454.5,P79,-21.14,P69,-385.4,P82,-6.536,P60,-288.6,P5,-8.700,P3,12.22,P23,1.697,P32
10854,C94,,21.6%,Max,545.0,P83,20.99,P2,454.7,P7,12.06,P57,143.5,P4,7.737,P2,454.9,P7,143.7,P4
10854,C94,,21.6%,Min,-454.5,P79,-21.14,P69,-382.0,P82,-6.536,P60,-141.8,P5,-9.918,P3,11.75,P23,4.190,P30
10854,C94,,28.8%,Max,545.0,P83,20.99,P2,459.2,P7,12.06,P57,78.08,P7,10.98,P57,459.4,P7,78.16,P7
10854,C94,,28.8%,Min,-454.5,P79,-21.14,P69,-378.7,P82,-6.536,P60,-10.67,P58,-12.19,P12,11.96,P22,2.811,P91
10854,C94,,28.8%,Max,138.3,P85,-2.706,P84,31.75,P79,34.47,P33,67.30,P83,-3.175,P68,88.72,P9,67.43,P83
10854,C94,,28.8%,Min,-40.22,P79,-14.42,P6,-88.18,P9,9.533,P60,-32.29,P79,-10.98,P6,5.229,P2,4.585,P56
10854,C94,,36.0%,Max,138.3,P85,-2.706,P84,35.10,P79,34.47,P33,45.57,P4,-0.9715,P69,84.56,P82,45.58,P4
10854,C94,,36.0%,Min,-40.22,P79,-14.42,P6,-84.51,P82,9.533,P60,-32.00,P5,-6.427,P25,7.806,P2,2.373,P42
10854,C94,,43.2%,Max,138.3,P85,-2.706,P84,38.45,P79,34.47,P33,36.19,P4,2.139,P57,81.21,P82,36.24,P4
10854,C94,,43.2%,Min,-40.22,P79,-14.42,P6,-81.16,P82,9.533,P60,-35.96,P5,-3.385,P5,8.777,P56,1.105,P51
10854,C94,,50.4%,Max,138.3,P85,-2.706,P84,41.80,P79,34.47,P33,28.00,P4,6.053,P21,77.86,P82,38.75,P5
10854,C94,,50.4%,Min,-40.22,P79,-14.42,P6,-77.81,P82,9.533,P60,-38.72,P5,-1.762,P61,7.041,P43,0.5328,P53
10854,C94,,57.6%,Max,138.3,P85,-2.706,P84,45.15,P79,34.47,P33,22.44,P79,10.83,P21,74.52,P82,49.92,P82
10854,C94,,57.6%,Min,-40.22,P79,-14.42,P6,-74.46,P82,9.533,P60,-49.92,P82,-0.7226,P61,6.281,P53,3.034,P53
10854,C94,,57.6%,Max,263.9,P7,9.598,P31,148.9,P79,-7.707,P49,88.09,P83,9.006,P31,179.0,P83,88.15,P83
10854,C94,,57.6%,Min,-154.3,P82,-0.5756,P3,-179.0,P83,-23.98,P31,-49.40,P79,0.07883,P3,4.932,P49,3.797,P48
10854,C94,,68.2%,Max,263.9,P7,9.598,P31,153.8,P79,-7.707,P49,105.0,P4,6.689,P2,174.1,P83,105.2,P4
10854,C94,,68.2%,Min,-154.3,P82,-0.5756,P3,-174.1,P83,-23.98,P31,-66.73,P5,-2.848,P3,2.743,P49,1.973,P36
10854,C94,,78.8%,Max,263.9,P7,9.598,P31,158.8,P79,-7.707,P49,152.0,P4,4.950,P2,169.2,P83,152.1,P4
10854,C94,,78.8%,Min,-154.3,P82,-0.5756,P3,-169.2,P83,-23.98,P31,-104.4,P5,-5.776,P3,2.921,P47,0.7283,P17
10854,C94,,89.4%,Max,263.9,P7,9.598,P31,163.7,P79,-7.707,P49,201.6,P4,3.212,P2,164.2,P83,201.6,P4
10854,C94,,89.4%,Min,-154.3,P82,-0.5756,P3,-164.2,P83,-23.98,P31,-182.1,P83,-8.703,P3,6.080,P47,5.076,P24
10854,C94,4835,100.0%,Max,263.9,P7,9.598,P31,168.6,P79,-7.707,P49,283.9,P79,1.474,P2,168.8,P79,284.0,P79
10854,C94,4835,100.0%,Min,-154.3,P82,-0.5756,P3,-159.3,P83,-23.98,P31,-267.0,P83,-11.88,P7,4.263,P45,8.510,P29
10875,C94,4786,0.0%,Max,140.4,P2,29.98,P2,-16.22,P46,-6.263,P55,256.9,P2,34.01,P2,127.0,P8,259.1,P2
10875,C94,4786,0.0%,Min,-175.6,P3,-42.88,P3,-125.4,P8,-18.41,P8,-82.56,P3,-46.57,P3,22.67,P46,7.009,P34
10875,C94,,6.3%,Max,140.4,P2,29.98,P2,-13.97,P46,-6.263,P55,216.5,P2,30.92,P2,124.0,P8,218.7,P2
10875,C94,,6.3%,Min,-175.6,P3,-42.88,P3,-122.4,P8,-18.41,P8,-93.71,P3,-38.35,P3,21.12,P46,5.015,P35
10875,C94,,12.5%,Max,140.4,P2,29.98,P2,-11.73,P46,-6.263,P55,177.1,P2,27.83,P2,121.1,P8,179.3,P2
10875,C94,,12.5%,Min,-175.6,P3,-42.88,P3,-119.3,P8,-18.41,P8,-104.0,P3,-30.14,P3,19.71,P46,0.7967,P38
10875,C94,,18.8%,Max,140.4,P2,29.98,P2,-9.484,P46,-6.263,P55,138.6,P2,24.74,P2,118.1,P8,140.8,P2
10875,C94,,18.8%,Min,-175.6,P3,-42.88,P3,-116.3,P8,-18.41,P8,-113.3,P3,-21.92,P3,18.46,P46,1.235,P15
10875,C94,,25.0%,Max,140.4,P2,29.98,P2,-7.239,P46,-6.263,P55,100.9,P2,21.65,P2,115.1,P8,122.6,P3
10875,C94,,25.0%,Min,-175.6,P3,-42.88,P3,-113.3,P8,-18.41,P8,-121.8,P3,-13.71,P3,16.78,P50,2.882,P59
10875,C94,,25.0%,Max,122.8,P2,1.699,P2,3.207,P46,-4.177,P47,93.73,P2,1.841,P2,86.50,P9,122.0,P3
10875,C94,,25.0%,Min,-121.5,P3,-3.577,P3,-86.46,P9,-13.51,P28,-121.9,P3,-3.311,P3,1.871,P47,2.092,P88
10875,C94,,31.2%,Max,122.8,P2,1.699,P2,5.452,P46,-4.177,P47,67.06,P4,1.995,P2,83.48,P9,129.2,P5
10875,C94,,31.2%,Min,-121.5,P3,-3.577,P3,-83.43,P9,-13.51,P28,-129.2,P5,-2.718,P3,0.9768,P50,0.7918,P63
10875,C94,,37.5%,Max,122.8,P2,1.699,P2,7.696,P46,-4.177,P47,41.84,P4,2.148,P2,80.45,P9,136.1,P5
10875,C94,,37.5%,Min,-121.5,P3,-3.577,P3,-80.40,P9,-13.51,P28,-136.1,P5,-2.125,P3,1.103,P71,0.2247,P87
10875,C94,,43.7%,Max,122.8,P2,1.699,P2,9.941,P46,-4.177,P47,19.38,P68,2.301,P2,77.42,P9,151.4,P12
10875,C94,,43.7%,Min,-121.5,P3,-3.577,P3,-77.37,P9,-13.51,P28,-151.4,P12,-1.532,P3,0.6073,P34,3.374,P45
10875,C94,,50.0%,Max,122.8,P2,1.699,P2,12.18,P46,-4.177,P47,3.765,P68,2.455,P2,74.67,P3,169.3,P13
10875,C94,,50.0%,Min,-121.5,P3,-3.577,P3,-74.58,P3,-13.51,P28,-169.3,P13,-0.9395,P3,0.9262,P35,3.287,P69
10875,C94,,50.0%,Max,117.1,P4,3.602,P2,38.58,P46,11.75,P23,0.5062,P68,2.493,P2,44.14,P3,172.2,P13
10875,C94,,50.0%,Min,-128.2,P5,-5.553,P3,-43.79,P3,1.506,P52,-172.2,P13,-3.626,P3,0.6665,P60,1.517,P68
10875,C94,,56.2%,Max,117.1,P4,3.602,P2,40.82,P46,11.75,P23,-3.559,P68,3.175,P2,41.92,P3,166.3,P13
10875,C94,,56.2%,Min,-128.2,P5,-5.553,P3,-41.55,P3,1.506,P52,-166.3,P13,-3.533,P3,0.6799,P61,3.612,P68
10875,C94,,62.5%,Max,117.1,P4,3.602,P2,43.06,P46,11.75,P23,-6.307,P58,3.858,P2,43.15,P46,160.2,P17
10875,C94,,62.5%,Min,-128.2,P5,-5.553,P3,-39.30,P3,1.506,P52,-160.2,P17,-3.439,P3,1.093,P87,6.309,P58
10875,C94,,68.7%,Max,117.1,P4,3.602,P2,45.31,P46,11.75,P23,4.830,P46,4.540,P2,45.39,P46,154.0,P17
10875,C94,,68.7%,Min,-128.2,P5,-5.553,P3,-37.06,P3,1.506,P52,-154.0,P17,-3.346,P3,1.072,P64,0.6552,P62
10875,C94,,75.0%,Max,117.1,P4,3.602,P2,47.55,P46,11.75,P23,23.28,P46,5.222,P2,47.63,P46,146.5,P17
10875,C94,,75.0%,Min,-128.2,P5,-5.553,P3,-34.81,P3,1.506,P52,-146.5,P17,-3.253,P3,1.776,P65,1.720,P56
10875,C94,,75.0%,Max,123.7,P4,11.78,P2,65.08,P10,12.58,P23,30.64,P46,7.005,P2,65.25,P10,141.5,P5
10875,C94,,75.0%,Min,-151.4,P5,-15.25,P3,-24.08,P3,1.722,P52,-141.3,P5,-8.693,P3,4.252,P88,0.4689,P57
10875,C94,,81.2%,Max,123.7,P4,11.78,P2,68.11,P10,12.58,P23,52.51,P46,9.145,P2,68.28,P10,142.6,P3
10875,C94,,81.2%,Min,-151.4,P5,-15.25,P3,-21.83,P3,1.722,P52,-142.3,P3,-9.453,P3,5.532,P92,0.4788,P45
10875,C94,,87.5%,Max,123.7,P4,11.78,P2,71.14,P10,12.58,P23,75.26,P46,11.29,P2,71.30,P10,147.5,P3
10875,C94,,87.5%,Min,-151.4,P5,-15.25,P3,-19.59,P3,1.722,P52,-147.2,P3,-10.21,P3,5.701,P92,2.651,P81
10875,C94,,93.7%,Max,123.7,P4,11.78,P2,74.17,P10,12.58,P23,98.91,P46,13.43,P2,74.32,P10,151.5,P3
10875,C94,,93.7%,Min,-151.4,P5,-15.25,P3,-17.34,P3,1.722,P52,-151.1,P3,-10.97,P3,6.669,P92,0.1712,P79
10875,C94,7492,100.0%,Max,123.7,P4,11.78,P2,77.20,P10,12.58,P23,123.5,P46,15.57,P2,77.35,P10,154.6,P3
10875,C94,7492,100.0%,Min,-151.4,P5,-15.25,P3,-15.10,P3,1.722,P52,-154.2,P3,-11.73,P3,8.009,P93,2.087,P87
10876,C94,7492,0.0%,Max,51.35,P4,13.73,P2,7.019,P4,-1.895,P4,127.5,P4,14.22,P2,90.29,P5,128.2,P4
10876,C94,7492,0.0%,Min,-60.00,P5,-23.19,P3,-87.44,P5,-16.67,P23,-87.98,P5,-23.64,P3,13.84,P2,2.819,P12
10876,C94,,8.3%,Max,51.35,P4,13.73,P2,9.343,P4,-1.895,P4,93.26,P4,14.30,P2,88.04,P5,94.23,P4
10876,C94,,8.3%,Min,-60.00,P5,-23.19,P3,-85.12,P5,-16.67,P23,-85.87,P5,-19.83,P3,13.75,P2,1.569,P7
10876,C94,,16.7%,Max,51.35,P4,13.73,P2,11.67,P4,-1.895,P4,59.98,P4,14.37,P2,85.79,P5,84.24,P5
10876,C94,,16.7%,Min,-60.00,P5,-23.19,P3,-82.80,P5,-16.67,P23,-82.81,P5,-16.01,P3,13.98,P52,1.280,P43
10876,C94,,25.0%,Max,51.35,P4,13.73,P2,13.99,P4,-1.895,P4,27.67,P4,14.45,P2,83.55,P5,79.67,P5
10876,C94,,25.0%,Min,-60.00,P5,-23.19,P3,-80.47,P5,-16.67,P23,-78.80,P5,-12.20,P3,11.66,P52,1.208,P63
10876,C94,,33.3%,Max,51.35,P4,13.73,P2,16.31,P4,-1.895,P4,-3.696,P4,14.52,P2,81.32,P5,81.03,P16
10876,C94,,33.3%,Min,-60.00,P5,-23.19,P3,-78.15,P5,-16.67,P23,-80.96,P16,-8.383,P3,9.347,P52,7.100,P69
10876,C94,,33.3%,Max,44.05,P4,1.617,P2,43.13,P4,8.149,P16,-9.753,P69,1.633,P2,54.35,P5,85.05,P28
10876,C94,,33.3%,Min,-45.05,P5,-2.181,P3,-54.32,P5,-0.06342,P59,-85.05,P28,-2.146,P3,0.1563,P55,9.780,P69
10876,C94,,41.7%,Max,44.05,P4,1.617,P2,45.45,P4,8.149,P16,-5.123,P4,1.589,P2,52.02,P5,84.77,P28
10876,C94,,41.7%,Min,-45.05,P5,-2.181,P3,-51.99,P5,-0.06342,P59,-84.77,P28,-1.870,P3,0.4208,P78,5.274,P4
10876,C94,,50.0%,Max,44.05,P4,1.617,P2,47.78,P4,8.149,P16,1.814,P4,1.544,P2,49.70,P5,90.75,P5
10876,C94,,50.0%,Min,-45.05,P5,-2.181,P3,-49.67,P5,-0.06342,P59,-90.74,P5,-1.594,P3,0.2394,P6,2.196,P4
10876,C94,,58.3%,Max,44.05,P4,1.617,P2,50.10,P4,8.149,P16,9.706,P4,1.500,P2,50.12,P4,98.46,P5
10876,C94,,58.3%,Min,-45.05,P5,-2.181,P3,-47.35,P5,-0.06342,P59,-98.46,P5,-1.318,P3,0.4380,P1,1.832,P2
10876,C94,,66.7%,Max,44.05,P4,1.617,P2,52.42,P4,8.149,P16,18.55,P4,1.456,P2,52.44,P4,105.2,P5
10876,C94,,66.7%,Min,-45.05,P5,-2.181,P3,-45.02,P5,-0.06342,P59,-105.2,P5,-1.042,P3,0.4372,P18,8.504,P2
10876,C94,,66.7%,Max,45.54,P4,1.039,P2,70.33,P4,19.41,P29,24.75,P4,1.134,P2,70.34,P4,108.6,P5
10876,C94,,66.7%,Min,-51.13,P5,-0.6823,P3,-22.41,P5,6.112,P68,-108.6,P5,-0.7930,P3,2.284,P68,13.52,P2
10876,C94,,75.0%,Max,45.54,P4,1.039,P2,72.66,P4,19.41,P29,53.65,P4,1.041,P2,72.66,P4,116.8,P5
10876,C94,,75.0%,Min,-51.13,P5,-0.6823,P3,-20.08,P5,6.112,P68,-116.8,P5,-0.8468,P3,4.607,P68,5.990,P55
10876,C94,,83.3%,Max,45.54,P4,1.039,P2,74.98,P4,19.41,P29,83.50,P4,0.9844,P4,74.99,P4,124.1,P5
10876,C94,,83.3%,Min,-51.13,P5,-0.6823,P3,-17.76,P5,6.112,P68,-124.1,P5,-0.9375,P5,6.930,P68,0.5943,P41
10876,C94,,91.7%,Max,45.54,P4,1.039,P2,77.30,P4,19.41,P29,114.3,P4,1.031,P4,77.31,P4,130.4,P5
10876,C94,,91.7%,Min,-51.13,P5,-0.6823,P3,-15.44,P5,6.112,P68,-130.4,P5,-1.131,P5,6.248,P3,0.3658,P28
10876,C94,7493,100.0%,Max,45.54,P4,1.039,P2,79.63,P4,19.41,P29,146.1,P4,1.078,P4,79.63,P4,146.1,P4
10876,C94,7493,100.0%,Min,-51.13,P5,-0.6823,P3,-13.11,P5,6.112,P68,-135.8,P5,-1.325,P5,3.947,P3,0.2456,P46
10877,C94,4971,0.0%,Max,293.2,P2,3.111,P2,57.68,P4,3.634,P21,142.5,P13,1.854,P2,91.70,P5,142.5,P13
10877,C94,4971,0.0%,Min,-486.4,P3,-5.223,P3,-91.59,P5,-0.4167,P49,22.17,P68,-3.826,P3,0.7656,P21,22.19,P68
10877,C94,,8.3%,Max,293.2,P2,3.111,P2,59.51,P4,3.634,P21,123.7,P29,2.134,P2,89.87,P5,123.7,P29
10877,C94,,8.3%,Min,-486.4,P3,-5.223,P3,-89.76,P5,-0.4167,P49,15.82,P5,-3.424,P3,0.6855,P39,16.10,P5
10877,C94,,16.7%,Max,293.2,P2,3.111,P2,61.33,P4,3.634,P21,121.0,P31,2.413,P2,88.05,P5,121.0,P31
10877,C94,,16.7%,Min,-486.4,P3,-5.223,P3,-87.94,P5,-0.4167,P49,-4.898,P5,-3.021,P3,0.3041,P58,5.530,P5
10877,C94,,25.0%,Max,293.2,P2,3.111,P2,63.15,P4,3.634,P21,130.9,P4,2.692,P2,86.23,P5,130.9,P4
10877,C94,,25.0%,Min,-486.4,P3,-5.223,P3,-86.11,P5,-0.4167,P49,-25.03,P5,-2.619,P3,0.3570,P56,2.619,P3
10877,C94,,33.3%,Max,293.2,P2,3.111,P2,64.98,P4,3.634,P21,143.6,P4,2.972,P2,84.41,P5,143.6,P4
10877,C94,,33.3%,Min,-486.4,P3,-5.223,P3,-84.29,P5,-0.4167,P49,-44.57,P5,-2.217,P3,0.6528,P8,2.920,P49
10877,C94,,33.3%,Max,326.8,P2,1.239,P4,77.26,P4,12.52,P12,143.8,P4,0.9155,P68,101.4,P5,143.8,P4
10877,C94,,33.3%,Min,-581.5,P3,-6.208,P13,-101.2,P5,-0.7864,P5,-47.50,P5,-2.628,P3,1.834,P57,3.474,P72
10877,C94,,41.7%,Max,326.8,P2,1.239,P4,79.08,P4,12.52,P12,168.4,P4,2.044,P4,99.57,P5,168.4,P4
10877,C94,,41.7%,Min,-581.5,P3,-6.208,P13,-99.42,P5,-0.7864,P5,-79.23,P5,-2.453,P5,3.078,P27,1.429,P40
10877,C94,,50.0%,Max,326.8,P2,1.239,P4,80.90,P4,12.52,P12,193.5,P4,3.416,P4,97.75,P5,193.6,P4
10877,C94,,50.0%,Min,-581.5,P3,-6.208,P13,-97.60,P5,-0.7864,P5,-110.4,P5,-2.444,P5,2.933,P26,0.7433,P46
10877,C94,,58.3%,Max,326.8,P2,1.239,P4,82.73,P4,12.52,P12,219.3,P4,4.789,P4,95.93,P5,219.4,P4
10877,C94,,58.3%,Min,-581.5,P3,-6.208,P13,-95.77,P5,-0.7864,P5,-140.9,P5,-2.435,P5,4.240,P26,1.693,P74
10877,C94,,66.7%,Max,326.8,P2,1.239,P4,84.55,P4,12.52,P12,245.6,P4,6.161,P4,94.11,P5,245.7,P4
10877,C94,,66.7%,Min,-581.5,P3,-6.208,P13,-93.95,P5,-0.7864,P5,-170.9,P5,-2.426,P5,3.409,P51,5.686,P75
10877,C94,,66.7%,Max,307.2,P2,31.09,P4,97.56,P4,9.453,P4,252.8,P4,10.18,P4,102.4,P4,253.0,P4
10877,C94,,66.7%,Min,-659.9,P3,-30.95,P5,-87.02,P5,-4.881,P5,-169.2,P5,-12.44,P5,1.618,P6,1.979,P75
10877,C94,,75.0%,Max,307.2,P2,31.09,P4,99.38,P4,9.453,P4,284.3,P4,14.69,P4,104.1,P4,284.7,P4
10877,C94,,75.0%,Min,-659.9,P3,-30.95,P5,-85.20,P5,-4.881,P5,-196.8,P5,-17.00,P5,3.077,P6,6.167,P75
10877,C94,,83.3%,Max,307.2,P2,31.09,P4,101.2,P4,9.453,P4,316.5,P4,19.20,P4,105.9,P4,317.1,P4
10877,C94,,83.3%,Min,-659.9,P3,-30.95,P5,-83.38,P5,-4.881,P5,-223.8,P5,-21.55,P5,4.555,P85,7.407,P80
10877,C94,,91.7%,Max,307.2,P2,31.09,P4,103.0,P4,9.453,P4,349.3,P4,23.71,P4,107.6,P4,350.1,P4
10877,C94,,91.7%,Min,-659.9,P3,-30.95,P5,-81.55,P5,-4.881,P5,-250.2,P5,-26.11,P5,3.048,P85,7.553,P84
10877,C94,4849,100.0%,Max,307.2,P2,31.09,P4,104.9,P4,9.453,P4,382.6,P4,28.22,P4,109.4,P4,383.7,P4
10877,C94,4849,100.0%,Min,-659.9,P3,-30.95,P5,-79.73,P5,-4.881,P5,-276.1,P5,-30.66,P5,2.071,P29,7.353,P84
10880,C94,6155,0.0%,Max,567.5,P2,13.58,P2,126.3,P4,-3.479,P2,436.6,P4,13.31,P2,211.6,P5,436.7,P4
10880,C94,6155,0.0%,Min,-558.5,P3,-4.087,P3,-211.6,P5,-10.36,P6,-408.0,P5,-3.276,P3,8.771,P81,5.207,P42
10880,C94,,8.3%,Max,567.5,P2,13.58,P2,130.2,P4,-3.479,P2,352.0,P4,10.83,P2,207.8,P5,356.3,P5
10880,C94,,8.3%,Min,-558.5,P3,-4.087,P3,-207.8,P5,-10.36,P6,-356.3,P5,-4.636,P3,7.354,P57,1.718,P68
10880,C94,,16.7%,Max,567.5,P2,13.58,P2,134.0,P4,-3.479,P2,268.8,P4,8.358,P2,204.0,P5,303.0,P5
10880,C94,,16.7%,Min,-558.5,P3,-4.087,P3,-204.0,P5,-10.36,P6,-303.0,P5,-5.996,P3,7.501,P56,0.7077,P67
10880,C94,,25.0%,Max,567.5,P2,13.58,P2,137.8,P4,-3.479,P2,187.2,P4,5.884,P2,200.2,P5,248.2,P5
10880,C94,,25.0%,Min,-558.5,P3,-4.087,P3,-200.2,P5,-10.36,P6,-248.1,P5,-7.356,P3,8.029,P55,0.2887,P41
10880,C94,,33.3%,Max,567.5,P2,13.58,P2,141.6,P4,-3.479,P2,107.2,P4,3.410,P2,196.4,P5,191.9,P5
10880,C94,,33.3%,Min,-558.5,P3,-4.087,P3,-196.4,P5,-10.36,P6,-191.8,P5,-8.716,P3,7.480,P54,0.4656,P60
10880,C94,,33.3%,Max,511.8,P2,7.868,P7,182.6,P4,0.01807,P2,86.64,P4,7.267,P7,182.7,P4,172.2,P5
10880,C94,,33.3%,Min,-489.4,P3,-0.1143,P83,-167.5,P5,-2.504,P3,-172.2,P5,-0.5820,P83,3.434,P50,5.805,P60
10880,C94,,41.7%,Max,511.8,P2,7.868,P7,186.4,P4,0.01807,P2,96.45,P4,4.786,P4,186.5,P4,174.4,P5
10880,C94,,41.7%,Min,-489.4,P3,-0.1143,P83,-163.7,P5,-2.504,P3,-174.4,P5,-1.256,P5,1.778,P67,20.57,P58
10880,C94,,50.0%,Max,511.8,P2,7.868,P7,190.2,P4,0.01807,P2,107.8,P4,3.417,P4,190.3,P4,175.0,P5
10880,C94,,50.0%,Min,-489.4,P3,-0.1143,P83,-159.9,P5,-2.504,P3,-175.0,P5,-2.792,P5,3.077,P66,25.80,P57
10880,C94,,58.3%,Max,511.8,P2,7.868,P7,194.0,P4,0.01807,P2,120.7,P4,2.048,P4,194.1,P4,174.2,P5
10880,C94,,58.3%,Min,-489.4,P3,-0.1143,P83,-156.1,P5,-2.504,P3,-174.1,P5,-4.328,P5,0.7130,P93,5.091,P81
10880,C94,,66.7%,Max,511.8,P2,7.868,P7,197.8,P4,0.01807,P2,135.1,P4,0.6794,P4,197.9,P4,171.8,P5
10880,C94,,66.7%,Min,-489.4,P3,-0.1143,P83,-152.3,P5,-2.504,P3,-171.7,P5,-5.864,P5,1.813,P91,1.880,P45
10880,C94,,66.7%,Max,468.2,P2,19.91,P4,222.0,P4,9.374,P33,163.3,P4,13.43,P4,222.9,P4,187.8,P5
10880,C94,,66.7%,Min,-444.0,P3,-2.658,P5,-132.5,P5,0.7064,P3,-187.8,P5,0.03721,P5,2.539,P87,5.671,P43
10880,C94,,75.0%,Max,468.2,P2,19.91,P4,225.8,P4,9.374,P33,253.7,P4,11.21,P4,226.7,P4,254.0,P4
10880,C94,,75.0%,Min,-444.0,P3,-2.658,P5,-128.7,P5,0.7064,P3,-240.5,P5,-4.717,P5,2.552,P83,2.409,P51
10880,C94,,83.3%,Max,468.2,P2,19.91,P4,229.6,P4,9.374,P33,345.7,P4,8.999,P4,230.5,P4,345.8,P4
10880,C94,,83.3%,Min,-444.0,P3,-2.658,P5,-124.9,P5,0.7064,P3,-291.7,P5,-9.471,P5,4.555,P58,1.089,P48
10880,C94,,91.7%,Max,468.2,P2,19.91,P4,233.4,P4,9.374,P33,439.1,P4,6.785,P4,234.3,P4,439.2,P4
10880,C94,,91.7%,Min,-444.0,P3,-2.658,P5,-121.1,P5,0.7064,P3,-341.3,P5,-14.22,P5,7.889,P58,3.599,P39
10880,C94,4884,100.0%,Max,468.2,P2,19.91,P4,237.2,P4,9.374,P33,534.1,P4,4.571,P4,238.0,P4,534.2,P4
10880,C94,4884,100.0%,Min,-444.0,P3,-2.658,P5,-117.3,P5,0.7064,P3,-389.4,P5,-18.98,P5,11.50,P60,3.647,P90
10885,C94,6157,0.0%,Max,531.6,P2,3.240,P2,134.1,P4,12.78,P22,471.4,P4,2.435,P2,223.3,P5,471.4,P4
10885,C94,6157,0.0%,Min,-582.6,P3,-12.73,P3,-223.1,P5,4.947,P69,-431.2,P5,-11.91,P3,9.783,P81,3.833,P21
10885,C94,,8.3%,Max,531.6,P2,3.240,P2,137.9,P4,12.78,P22,382.1,P4,4.000,P2,219.5,P5,382.1,P4
10885,C94,,8.3%,Min,-582.6,P3,-12.73,P3,-219.3,P5,4.947,P69,-376.3,P5,-9.639,P3,7.005,P81,0.5846,P68
10885,C94,,16.7%,Max,531.6,P2,3.240,P2,141.7,P4,12.78,P22,294.3,P4,5.565,P2,215.7,P5,319.9,P5
10885,C94,,16.7%,Min,-582.6,P3,-12.73,P3,-215.5,P5,4.947,P69,-319.9,P5,-7.370,P3,4.079,P57,0.9822,P66
10885,C94,,25.0%,Max,531.6,P2,3.240,P2,145.5,P4,12.78,P22,208.1,P4,7.130,P2,211.9,P5,261.9,P5
10885,C94,,25.0%,Min,-582.6,P3,-12.73,P3,-211.7,P5,4.947,P69,-261.9,P5,-5.101,P3,3.492,P57,1.243,P90
10885,C94,,33.3%,Max,531.6,P2,3.240,P2,149.3,P4,12.78,P22,123.4,P4,8.695,P2,208.1,P5,202.4,P5
10885,C94,,33.3%,Min,-582.6,P3,-12.73,P3,-207.9,P5,4.947,P69,-202.4,P5,-2.832,P3,4.442,P56,5.723,P58
10885,C94,,33.3%,Max,480.8,P2,-0.04594,P93,185.8,P4,5.473,P6,98.32,P4,0.1911,P93,187.6,P5,179.9,P5
10885,C94,,33.3%,Min,-513.9,P3,-7.570,P7,-187.5,P5,1.348,P3,-179.9,P5,-6.324,P7,0.3083,P68,10.99,P58
10885,C94,,41.7%,Max,480.8,P2,-0.04594,P93,189.6,P4,5.473,P6,104.6,P4,0.9977,P2,189.6,P4,185.4,P5
10885,C94,,41.7%,Min,-513.9,P3,-7.570,P7,-183.7,P5,1.348,P3,-185.3,P5,-4.007,P3,3.137,P67,24.38,P58
10885,C94,,50.0%,Max,480.8,P2,-0.04594,P93,193.4,P4,5.473,P6,112.4,P4,2.460,P2,193.4,P4,189.3,P5
10885,C94,,50.0%,Min,-513.9,P3,-7.570,P7,-179.9,P5,1.348,P3,-189.3,P5,-2.627,P3,1.672,P67,28.95,P57
10885,C94,,58.3%,Max,480.8,P2,-0.04594,P93,197.2,P4,5.473,P6,121.8,P4,3.922,P2,197.2,P4,191.7,P5
10885,C94,,58.3%,Min,-513.9,P3,-7.570,P7,-176.1,P5,1.348,P3,-191.7,P5,-1.247,P3,1.376,P93,13.78,P81
10885,C94,,66.7%,Max,480.8,P2,-0.04594,P93,201.0,P4,5.473,P6,132.7,P4,5.902,P7,201.0,P4,192.5,P5
10885,C94,,66.7%,Min,-513.9,P3,-7.570,P7,-172.3,P5,1.348,P3,-192.5,P5,0.02188,P5,1.048,P92,2.650,P56
10885,C94,,66.7%,Max,442.4,P2,2.126,P69,236.2,P4,-2.608,P4,162.2,P4,2.296,P69,236.2,P4,213.0,P5
10885,C94,,66.7%,Min,-463.4,P3,-13.35,P7,-140.5,P5,-11.04,P33,-212.8,P5,-9.117,P7,7.469,P84,2.894,P45
10885,C94,,75.0%,Max,442.4,P2,2.126,P69,240.0,P4,-2.608,P4,258.3,P4,2.708,P4,240.0,P4,268.8,P5
10885,C94,,75.0%,Min,-463.4,P3,-13.35,P7,-136.7,P5,-11.04,P33,-268.8,P5,-6.067,P5,10.90,P84,1.594,P68
10885,C94,,83.3%,Max,442.4,P2,2.126,P69,243.8,P4,-2.608,P4,356.0,P4,6.559,P4,243.8,P4,356.0,P4
10885,C94,,83.3%,Min,-463.4,P3,-13.35,P7,-132.9,P5,-11.04,P33,-323.2,P5,-4.669,P5,14.52,P84,0.8196,P46
10885,C94,,91.7%,Max,442.4,P2,2.126,P69,247.6,P4,-2.608,P4,455.1,P4,10.41,P4,247.6,P4,455.3,P4
10885,C94,,91.7%,Min,-463.4,P3,-13.35,P7,-129.1,P5,-11.04,P33,-376.0,P5,-3.270,P5,18.19,P60,1.794,P91
10885,C94,4877,100.0%,Max,442.4,P2,2.126,P69,251.4,P4,-2.608,P4,555.8,P4,14.26,P4,251.4,P4,556.0,P4
10885,C94,4877,100.0%,Min,-463.4,P3,-13.35,P7,-125.3,P5,-11.04,P33,-427.3,P5,-1.872,P5,21.81,P60,6.167,P34
11049,C94,7373,0.0%,Max,369.0,P69,15.54,P2,82.88,P50,1.992,P2,121.2,P68,16.09,P2,91.05,P68,121.2,P68
11049,C94,7373,0.0%,Min,-447.9,P3,-14.29,P3,-91.01,P68,-2.085,P3,-113.6,P50,-15.29,P3,1.733,P91,2.150,P91
11049,C94,,6.2%,Max,369.0,P69,15.54,P2,85.00,P50,1.992,P2,87.49,P68,13.60,P2,88.94,P68,87.50,P68
11049,C94,,6.2%,Min,-447.9,P3,-14.29,P3,-88.90,P68,-2.085,P3,-82.14,P50,-13.27,P3,1.682,P91,1.654,P87
11049,C94,,12.5%,Max,369.0,P69,15.54,P2,87.12,P50,1.992,P2,54.59,P68,11.12,P2,88.28,P4,57.15,P5
11049,C94,,12.5%,Min,-447.9,P3,-14.29,P3,-86.78,P68,-2.085,P3,-56.16,P5,-11.26,P3,2.828,P90,0.3654,P86
11049,C94,,18.7%,Max,369.0,P69,15.54,P2,89.23,P50,1.992,P2,40.97,P4,8.630,P2,90.36,P4,41.76,P4
11049,C94,,18.7%,Min,-447.9,P3,-14.29,P3,-84.66,P68,-2.085,P3,-32.01,P5,-9.236,P3,0.8000,P90,0.2436,P31
11049,C94,,25.0%,Max,369.0,P69,15.54,P2,91.35,P50,1.992,P2,29.37,P4,6.144,P2,92.45,P4,29.92,P4
11049,C94,,25.0%,Min,-447.9,P3,-14.29,P3,-82.55,P68,-2.085,P3,-8.834,P68,-7.217,P3,1.494,P90,2.235,P20
11049,C94,,25.0%,Max,267.2,P2,0.5012,P4,8.256,P2,0.4145,P69,17.83,P2,2.195,P2,17.10,P68,17.97,P2
11049,C94,,25.0%,Min,-272.8,P3,-1.644,P5,-17.09,P68,-0.9620,P5,-12.63,P3,-3.522,P3,0.8271,P19,0.4489,P31
11049,C94,,31.2%,Max,267.2,P2,0.5012,P4,10.37,P2,0.4145,P69,14.06,P2,2.253,P2,14.98,P68,14.24,P2
11049,C94,,31.2%,Min,-272.8,P3,-1.644,P5,-14.98,P68,-0.9620,P5,-10.80,P3,-3.152,P3,0.5056,P67,0.1351,P31
11049,C94,,37.5%,Max,267.2,P2,0.5012,P4,12.49,P2,0.4145,P69,11.08,P2,2.311,P2,12.87,P68,11.32,P2
11049,C94,,37.5%,Min,-272.8,P3,-1.644,P5,-12.86,P68,-0.9620,P5,-8.185,P3,-2.782,P3,1.133,P1,0.4139,P7
11049,C94,,43.7%,Max,267.2,P2,0.5012,P4,14.60,P2,0.4145,P69,8.896,P2,2.369,P2,14.61,P2,9.206,P2
11049,C94,,43.7%,Min,-272.8,P3,-1.644,P5,-10.75,P68,-0.9620,P5,-4.774,P3,-2.412,P3,0.1575,P91,0.1505,P34
11049,C94,,50.0%,Max,267.2,P2,0.5012,P4,16.72,P2,0.4145,P69,8.659,P4,2.428,P2,16.72,P2,8.897,P4
11049,C94,,50.0%,Min,-272.8,P3,-1.644,P5,-8.631,P68,-0.9620,P5,-3.116,P68,-2.042,P3,0.6492,P32,0.5587,P56
11049,C94,,50.0%,Max,184.3,P2,1.521,P2,6.816,P2,0.6236,P4,8.069,P2,1.181,P4,11.37,P68,8.129,P2
11049,C94,,50.0%,Min,-126.3,P3,-0.2663,P3,-11.36,P68,-0.3802,P5,-3.502,P46,-0.4740,P5,0.3243,P81,0.07454,P67
11049,C94,,56.2%,Max,184.3,P2,1.521,P2,8.932,P2,0.6236,P4,8.365,P2,0.9747,P4,9.252,P68,8.416,P2
11049,C94,,56.2%,Min,-126.3,P3,-0.2663,P3,-9.242,P68,-0.3802,P5,-3.540,P3,-0.7382,P5,0.5167,P67,0.06272,P39
11049,C94,,62.5%,Max,184.3,P2,1.521,P2,11.05,P2,0.6236,P4,9.453,P2,0.8789,P2,11.15,P2,9.493,P2
11049,C94,,62.5%,Min,-126.3,P3,-0.2663,P3,-7.126,P68,-0.3802,P5,-3.253,P3,-1.112,P3,0.5322,P57,0.1252,P90
11049,C94,,68.7%,Max,184.3,P2,1.521,P2,13.16,P2,0.6236,P4,11.33,P2,0.8274,P2,13.25,P2,11.36,P2
11049,C94,,68.7%,Min,-126.3,P3,-0.2663,P3,-5.011,P68,-0.3802,P5,-3.938,P68,-1.531,P3,0.8128,P90,0.3713,P90
11049,C94,,75.0%,Max,184.3,P2,1.521,P2,15.91,P7,0.6236,P4,16.33,P7,0.7759,P2,15.94,P7,16.37,P7
11049,C94,,75.0%,Min,-126.3,P3,-0.2663,P3,-2.895,P68,-0.3802,P5,-5.419,P68,-1.949,P3,0.5269,P44,0.7199,P90
11049,C94,,75.0%,Max,157.8,P7,3.823,P4,33.62,P74,1.087,P2,18.78,P9,0.8677,P2,33.72,P74,18.80,P9
11049,C94,,75.0%,Min,-76.93,P68,-4.031,P55,-32.33,P68,-1.001,P3,-6.264,P55,-2.022,P3,2.838,P61,0.1711,P58
11049,C94,,81.3%,Max,157.8,P7,3.823,P4,35.74,P74,1.087,P2,22.02,P2,1.635,P4,35.83,P74,22.06,P2
11049,C94,,81.3%,Min,-76.93,P68,-4.031,P55,-30.22,P68,-1.001,P3,-4.111,P68,-2.754,P5,4.825,P33,0.3511,P56
11049,C94,,87.5%,Max,157.8,P7,3.823,P4,37.85,P74,1.087,P2,30.72,P7,2.501,P4,37.94,P74,30.72,P7
11049,C94,,87.5%,Min,-76.93,P68,-4.031,P55,-28.10,P68,-1.001,P3,-15.03,P68,-3.585,P5,1.969,P33,0.3880,P91
11049,C94,,93.8%,Max,157.8,P7,3.823,P4,39.97,P74,1.087,P2,42.53,P7,3.650,P55,40.05,P74,42.54,P7
11049,C94,,93.8%,Min,-76.93,P68,-4.031,P55,-25.99,P68,-1.001,P3,-25.16,P68,-4.416,P5,0.6832,P32,1.168,P82
11049,C94,7374,100.0%,Max,157.8,P7,3.823,P4,42.08,P74,1.087,P2,57.17,P76,5.159,P55,42.16,P74,57.22,P76
11049,C94,7374,100.0%,Min,-76.93,P68,-4.031,P55,-23.87,P68,-1.001,P3,-34.50,P68,-5.246,P5,0.8227,P82,1.309,P82
11050,C94,7362,0.0%,Max,379.9,P2,15.81,P2,-9.849,P2,10.95,P31,163.0,P21,15.44,P2,95.00,P21,163.2,P21
11050,C94,7362,0.0%,Min,-765.6,P3,-8.542,P3,-94.67,P21,3.358,P49,-90.00,P3,-7.155,P3,11.38,P48,5.363,P51
11050,C94,,6.3%,Max,379.9,P2,15.81,P2,-7.484,P2,10.95,P31,130.2,P2,13.40,P2,91.82,P21,130.9,P2
11050,C94,,6.3%,Min,-765.6,P3,-8.542,P3,-91.48,P21,3.358,P49,-93.68,P3,-8.159,P3,9.020,P48,3.356,P24
11050,C94,,12.5%,Max,379.9,P2,15.81,P2,-5.119,P2,10.95,P31,100.5,P2,11.36,P2,88.64,P21,101.1,P2
11050,C94,,12.5%,Min,-765.6,P3,-8.542,P3,-88.28,P21,3.358,P49,-96.37,P3,-9.162,P3,6.657,P48,1.705,P10
11050,C94,,18.8%,Max,379.9,P2,15.81,P2,-2.755,P2,10.95,P31,71.68,P2,9.319,P2,85.46,P21,98.60,P3
11050,C94,,18.8%,Min,-765.6,P3,-8.542,P3,-85.09,P21,3.358,P49,-98.08,P3,-10.17,P3,4.296,P48,0.4420,P81
11050,C94,,25.0%,Max,379.9,P2,15.81,P2,-0.3903,P2,10.95,P31,45.87,P69,7.280,P2,82.29,P21,99.41,P3
11050,C94,,25.0%,Min,-765.6,P3,-8.542,P3,-81.90,P21,3.358,P49,-98.79,P3,-11.17,P3,1.945,P48,1.802,P87
11050,C94,,25.0%,Max,466.4,P2,1.804,P2,12.00,P2,9.976,P22,40.88,P69,1.644,P2,60.89,P21,97.51,P3
11050,C94,,25.0%,Min,-854.2,P3,-1.516,P3,-60.89,P21,3.713,P80,-97.51,P3,-0.3660,P3,0.5151,P37,4.311,P54
11050,C94,,31.2%,Max,466.4,P2,1.804,P2,14.37,P2,9.976,P22,21.31,P69,2.019,P2,57.70,P21,98.27,P12
11050,C94,,31.2%,Min,-854.2,P3,-1.516,P3,-57.69,P21,3.713,P80,-98.27,P12,-0.8611,P3,0.9751,P41,0.2228,P56
11050,C94,,37.5%,Max,466.4,P2,1.804,P2,16.73,P2,9.976,P22,2.727,P69,2.393,P2,54.51,P21,104.0,P12
11050,C94,,37.5%,Min,-854.2,P3,-1.516,P3,-54.50,P21,3.713,P80,-104.0,P12,-1.356,P3,0.6211,P70,2.184,P68
11050,C94,,43.7%,Max,466.4,P2,1.804,P2,19.10,P2,9.976,P22,-14.87,P69,2.768,P2,51.32,P21,108.5,P12
11050,C94,,43.7%,Min,-854.2,P3,-1.516,P3,-51.31,P21,3.713,P80,-108.5,P12,-1.851,P3,0.2759,P64,14.90,P69
11050,C94,,50.0%,Max,466.4,P2,1.804,P2,21.46,P2,9.976,P22,-30.67,P66,3.142,P2,48.13,P21,115.8,P24
11050,C94,,50.0%,Min,-854.2,P3,-1.516,P3,-48.12,P21,3.713,P80,-115.8,P24,-2.346,P3,0.8714,P51,30.68,P66
11050,C94,,50.0%,Max,504.1,P2,0.7650,P4,52.57,P2,-1.940,P48,-31.86,P66,1.831,P2,52.58,P2,113.3,P24
11050,C94,,50.0%,Min,-899.2,P3,-1.678,P5,-17.33,P3,-7.130,P33,-113.3,P24,-1.670,P3,1.592,P56,31.87,P66
11050,C94,,56.2%,Max,504.1,P2,0.7650,P4,54.94,P2,-1.940,P48,-29.91,P2,2.145,P2,54.94,P2,93.89,P28
11050,C94,,56.2%,Min,-899.2,P3,-1.678,P5,-14.97,P3,-7.130,P33,-93.89,P28,-1.602,P3,0.3157,P66,29.99,P2
11050,C94,,62.5%,Max,504.1,P2,0.7650,P4,57.30,P2,-1.940,P48,-10.53,P2,2.459,P2,57.30,P2,78.77,P33
11050,C94,,62.5%,Min,-899.2,P3,-1.678,P5,-12.61,P3,-7.130,P33,-78.77,P33,-1.533,P3,1.938,P5,10.81,P2
11050,C94,,68.7%,Max,504.1,P2,0.7650,P4,59.67,P2,-1.940,P48,9.852,P2,2.772,P2,59.67,P2,71.34,P3
11050,C94,,68.7%,Min,-899.2,P3,-1.678,P5,-10.24,P3,-7.130,P33,-71.33,P3,-1.465,P3,0.7952,P44,3.450,P4
11050,C94,,75.0%,Max,504.1,P2,0.7650,P4,62.23,P12,-1.940,P48,31.22,P2,3.086,P2,62.25,P12,71.03,P3
11050,C94,,75.0%,Min,-899.2,P3,-1.678,P5,-7.876,P3,-7.130,P33,-71.02,P3,-1.418,P69,0.4399,P93,1.680,P34
11050,C94,,75.0%,Max,503.1,P2,2.605,P4,91.18,P12,-3.852,P48,39.05,P2,2.324,P2,91.64,P12,72.12,P3
11050,C94,,75.0%,Min,-920.6,P3,-9.138,P12,7.169,P69,-13.14,P33,-71.83,P3,-6.556,P3,7.624,P69,0.8151,P79
11050,C94,,81.2%,Max,503.1,P2,2.605,P4,94.38,P12,-3.852,P48,71.89,P2,3.866,P2,94.82,P12,72.00,P2
11050,C94,,81.2%,Min,-920.6,P3,-9.138,P12,9.534,P69,-13.14,P33,-68.12,P3,-5.543,P3,9.880,P69,0.1838,P80
11050,C94,,87.5%,Max,503.1,P2,2.605,P4,97.57,P12,-3.852,P48,105.7,P2,5.408,P2,97.99,P12,105.9,P2
11050,C94,,87.5%,Min,-920.6,P3,-9.138,P12,11.90,P69,-13.14,P33,-63.43,P3,-4.530,P3,12.18,P69,4.389,P87
11050,C94,,93.7%,Max,503.1,P2,2.605,P4,100.8,P12,-3.852,P48,140.5,P2,7.128,P4,101.2,P12,140.7,P2
11050,C94,,93.7%,Min,-920.6,P3,-9.138,P12,14.26,P69,-13.14,P33,-57.74,P3,-3.695,P5,14.50,P69,1.697,P66
11050,C94,7363,100.0%,Max,503.1,P2,2.605,P4,104.0,P12,-3.852,P48,176.4,P2,9.525,P12,104.4,P12,176.6,P2
11050,C94,7363,100.0%,Min,-920.6,P3,-9.138,P12,16.63,P69,-13.14,P33,-51.07,P3,-3.495,P69,16.83,P69,9.025,P57
11051,C94,7360,0.0%,Max,455.5,P4,18.51,P2,-21.03,P49,12.96,P31,124.1,P20,16.63,P2,90.29,P32,124.4,P4
11051,C94,7360,0.0%,Min,-630.4,P5,-11.69,P3,-90.07,P32,3.384,P49,-76.23,P5,-9.799,P3,22.05,P49,4.326,P71
11051,C94,,5.0%,Max,455.5,P4,18.51,P2,-18.92,P49,12.96,P31,100.5,P4,14.43,P2,87.45,P32,101.1,P4
11051,C94,,5.0%,Min,-630.4,P5,-11.69,P3,-87.22,P32,3.384,P49,-84.33,P5,-10.15,P3,20.05,P53,3.203,P88
11051,C94,,10.0%,Max,455.5,P4,18.51,P2,-16.81,P49,12.96,P31,77.92,P4,12.24,P2,84.61,P32,91.97,P5
11051,C94,,10.0%,Min,-630.4,P5,-11.69,P3,-84.38,P32,3.384,P49,-91.64,P5,-10.50,P3,18.06,P53,0.2986,P78
11051,C94,,15.0%,Max,455.5,P4,18.51,P2,-14.70,P49,12.96,P31,56.16,P4,10.05,P2,81.77,P32,98.55,P5
11051,C94,,15.0%,Min,-630.4,P5,-11.69,P3,-81.53,P32,3.384,P49,-98.17,P5,-10.86,P3,16.09,P53,0.6921,P34
11051,C94,,20.0%,Max,455.5,P4,18.51,P2,-12.60,P49,12.96,P31,35.19,P4,7.855,P2,78.93,P32,104.3,P5
11051,C94,,20.0%,Min,-630.4,P5,-11.69,P3,-78.68,P32,3.384,P49,-103.9,P5,-11.21,P3,14.17,P53,1.348,P62
11051,C94,,20.0%,Max,408.1,P4,3.226,P2,-1.621,P4,10.60,P31,30.11,P4,2.056,P2,57.28,P20,105.5,P5
11051,C94,,20.0%,Min,-573.6,P5,-3.949,P3,-57.28,P20,3.301,P49,-105.5,P5,-2.561,P3,2.488,P4,1.612,P54
11051,C94,,25.0%,Max,408.1,P4,3.226,P2,0.4880,P4,10.60,P31,13.60,P4,2.430,P2,54.43,P20,105.9,P5
11051,C94,,25.0%,Min,-573.6,P5,-3.949,P3,-54.43,P20,3.301,P49,-105.9,P5,-2.665,P3,1.950,P4,0.6332,P44
11051,C94,,30.0%,Max,408.1,P4,3.226,P2,2.597,P4,10.60,P31,-2.119,P4,2.804,P2,51.58,P20,113.7,P13
11051,C94,,30.0%,Min,-573.6,P5,-3.949,P3,-51.58,P20,3.301,P49,-113.7,P13,-2.769,P3,0.01541,P53,2.839,P4
11051,C94,,35.0%,Max,408.1,P4,3.226,P2,4.705,P4,10.60,P31,-17.05,P4,3.178,P2,48.74,P20,121.9,P13
11051,C94,,35.0%,Min,-573.6,P5,-3.949,P3,-48.74,P20,3.301,P49,-121.9,P13,-2.873,P3,0.07433,P73,17.17,P66
11051,C94,,40.0%,Max,408.1,P4,3.226,P2,6.814,P4,10.60,P31,-27.47,P66,3.552,P2,45.89,P20,130.6,P25
11051,C94,,40.0%,Min,-573.6,P5,-3.949,P3,-45.89,P20,3.301,P49,-130.6,P25,-2.977,P3,0.2435,P40,27.47,P66
11051,C94,,40.0%,Max,324.9,P4,1.143,P2,28.46,P4,0.4908,P2,-28.52,P66,0.4222,P2,28.47,P4,130.0,P25
11051,C94,,40.0%,Min,-511.4,P5,-1.719,P3,-18.15,P5,-0.4839,P3,-130.0,P25,-0.6663,P3,0.5686,P32,28.52,P66
11051,C94,,45.0%,Max,324.9,P4,1.143,P2,30.57,P4,0.4908,P2,-31.75,P66,0.8838,P2,30.58,P4,123.5,P25
11051,C94,,45.0%,Min,-511.4,P5,-1.719,P3,-16.04,P5,-0.4839,P3,-123.5,P25,-0.9129,P3,0.2056,P59,31.75,P66
11051,C94,,50.0%,Max,324.9,P4,1.143,P2,32.68,P4,0.4908,P2,-34.19,P66,1.345,P2,32.69,P4,116.0,P24
11051,C94,,50.0%,Min,-511.4,P5,-1.719,P3,-13.94,P5,-0.4839,P3,-116.0,P24,-1.159,P3,0.2543,P43,34.19,P66
11051,C94,,55.0%,Max,324.9,P4,1.143,P2,34.79,P4,0.4908,P2,-35.18,P55,1.807,P2,34.79,P4,107.6,P24
11051,C94,,55.0%,Min,-511.4,P5,-1.719,P3,-11.83,P5,-0.4839,P3,-107.6,P24,-1.406,P3,0.2982,P42,35.18,P55
11051,C94,,60.0%,Max,324.9,P4,1.143,P2,36.90,P4,0.4908,P2,-32.72,P55,2.269,P2,36.90,P4,98.64,P8
11051,C94,,60.0%,Min,-511.4,P5,-1.719,P3,-9.719,P5,-0.4839,P3,-98.64,P8,-1.653,P3,0.2997,P67,32.72,P55
11051,C94,,60.0%,Max,278.2,P2,0.4377,P2,69.08,P25,-2.650,P49,-31.66,P55,0.6991,P2,69.09,P25,96.12,P8
11051,C94,,60.0%,Min,-501.8,P3,-1.531,P3,8.995,P5,-9.079,P33,-96.12,P8,-0.9632,P3,9.083,P5,31.66,P55
11051,C94,,65.0%,Max,278.2,P2,0.4377,P2,71.93,P25,-2.650,P49,-19.30,P2,1.165,P2,71.93,P25,75.18,P32
11051,C94,,65.0%,Min,-501.8,P3,-1.531,P3,11.10,P5,-9.079,P33,-75.18,P32,-1.021,P3,11.18,P5,19.33,P2
11051,C94,,70.0%,Max,278.2,P2,0.4377,P2,74.77,P25,-2.650,P49,2.277,P2,1.630,P2,74.78,P25,55.22,P20
11051,C94,,70.0%,Min,-501.8,P3,-1.531,P3,13.21,P5,-9.079,P33,-55.21,P20,-1.078,P3,13.27,P5,1.435,P4
11051,C94,,75.0%,Max,278.2,P2,0.4377,P2,77.62,P25,-2.650,P49,24.64,P2,2.096,P2,77.63,P25,44.69,P3
11051,C94,,75.0%,Min,-501.8,P3,-1.531,P3,15.32,P5,-9.079,P33,-44.68,P3,-1.136,P3,15.37,P5,0.4800,P78
11051,C94,,80.0%,Max,278.2,P2,0.4377,P2,80.47,P25,-2.650,P49,47.78,P2,2.561,P2,80.47,P25,47.85,P2
11051,C94,,80.0%,Min,-501.8,P3,-1.531,P3,17.43,P5,-9.079,P33,-37.35,P3,-1.193,P3,17.48,P5,0.4213,P62
11051,C94,,80.0%,Max,264.4,P2,2.631,P4,108.7,P25,-3.690,P49,52.59,P2,2.087,P4,108.9,P25,52.60,P2
11051,C94,,80.0%,Min,-531.9,P3,-7.161,P5,28.64,P68,-13.35,P31,-35.85,P3,-4.122,P5,28.64,P68,0.8802,P42
11051,C94,,85.0%,Max,264.4,P2,2.631,P4,111.6,P25,-3.690,P49,82.08,P2,3.337,P4,111.7,P25,82.12,P2
11051,C94,,85.0%,Min,-531.9,P3,-7.161,P5,30.75,P68,-13.35,P31,-23.27,P3,-3.681,P5,30.75,P68,2.386,P45
11051,C94,,90.0%,Max,264.4,P2,2.631,P4,114.4,P25,-3.690,P49,112.4,P2,4.587,P4,114.5,P25,112.4,P2
11051,C94,,90.0%,Min,-531.9,P3,-7.161,P5,32.86,P68,-13.35,P31,-9.911,P3,-3.240,P5,32.86,P68,1.471,P69
11051,C94,,95.0%,Max,264.4,P2,2.631,P4,117.3,P25,-3.690,P49,152.1,P13,6.085,P2,117.4,P25,152.1,P13
11051,C94,,95.0%,Min,-531.9,P3,-7.161,P5,34.97,P68,-13.35,P31,3.859,P5,-3.047,P3,34.97,P68,4.767,P5
11051,C94,7361,100.0%,Max,264.4,P2,2.631,P4,120.1,P25,-3.690,P49,194.8,P13,7.759,P2,120.2,P25,194.9,P13
11051,C94,7361,100.0%,Min,-531.9,P3,-7.161,P5,37.08,P68,-13.35,P31,18.16,P5,-3.030,P3,37.08,P68,18.31,P5
11082,C94,5219,0.0%,Max,47.66,P2,1.176,P2,-11.23,P4,-13.99,P2,-7.408,P2,3.284,P2,72.69,P33,21.12,P25
11082,C94,5219,0.0%,Min,-43.48,P3,-8.377,P3,-72.36,P33,-42.99,P8,-20.54,P24,-7.108,P3,11.24,P4,7.716,P55
11082,C94,,6.2%,Max,47.66,P2,1.176,P2,-8.062,P4,-13.99,P2,-11.90,P4,3.602,P2,68.43,P33,43.99,P33
11082,C94,,6.2%,Min,-43.48,P3,-8.377,P3,-68.07,P33,-42.99,P8,-43.96,P33,-4.999,P3,8.063,P4,12.16,P4
11082,C94,,12.5%,Max,47.66,P2,1.176,P2,-4.889,P4,-13.99,P2,-14.39,P4,3.920,P2,64.17,P33,66.19,P33
11082,C94,,12.5%,Min,-43.48,P3,-8.377,P3,-63.79,P33,-42.99,P8,-66.19,P33,-2.891,P3,4.890,P4,14.73,P4
11082,C94,,18.7%,Max,47.66,P2,1.176,P2,-1.716,P4,-13.99,P2,-15.80,P4,4.238,P2,59.91,P33,87.02,P33
11082,C94,,18.7%,Min,-43.48,P3,-8.377,P3,-59.51,P33,-42.99,P8,-86.96,P33,-0.7820,P3,1.720,P4,16.26,P4
11082,C94,,25.0%,Max,47.66,P2,1.176,P2,1.457,P4,-13.99,P2,-16.14,P4,5.805,P6,55.66,P33,106.4,P33
11082,C94,,25.0%,Min,-43.48,P3,-8.377,P3,-55.22,P33,-42.99,P8,-106.3,P33,1.327,P3,1.463,P4,16.77,P4
11082,C94,,25.0%,Max,67.18,P2,0.2968,P4,41.17,P4,-2.621,P2,-14.90,P4,0.9507,P4,41.17,P4,107.4,P33
11082,C94,,25.0%,Min,-60.39,P3,-1.502,P5,-1.472,P5,-9.257,P8,-107.4,P33,-2.178,P5,2.103,P5,14.93,P4
11082,C94,,31.2%,Max,67.18,P2,0.2968,P4,44.34,P4,-2.621,P2,-0.8270,P4,0.8681,P4,44.34,P4,94.40,P33
11082,C94,,31.2%,Min,-60.39,P3,-1.502,P5,1.701,P5,-9.257,P8,-94.40,P33,-1.690,P5,2.269,P5,1.199,P4
11082,C94,,37.5%,Max,67.18,P2,0.2968,P4,48.24,P24,-2.621,P2,14.32,P4,0.8383,P2,48.25,P24,86.04,P5
11082,C94,,37.5%,Min,-60.39,P3,-1.502,P5,4.874,P5,-9.257,P8,-86.03,P5,-1.254,P3,5.100,P5,7.621,P2
11082,C94,,43.7%,Max,67.18,P2,0.2968,P4,52.52,P24,-2.621,P2,30.53,P4,0.8284,P2,52.53,P24,83.52,P5
11082,C94,,43.7%,Min,-60.39,P3,-1.502,P5,8.047,P5,-9.257,P8,-83.52,P5,-0.8377,P3,8.186,P5,4.863,P2
11082,C94,,50.0%,Max,67.18,P2,0.2968,P4,56.80,P24,-2.621,P2,47.81,P4,0.8184,P2,56.81,P24,79.94,P5
11082,C94,,50.0%,Min,-60.39,P3,-1.502,P5,11.22,P5,-9.257,P8,-79.94,P5,-0.4217,P3,11.32,P5,0.4327,P61
11082,C94,,50.0%,Max,90.40,P4,5.114,P4,164.1,P24,9.292,P22,58.28,P4,3.522,P4,164.1,P24,70.26,P5
11082,C94,,50.0%,Min,-68.12,P5,-7.900,P5,66.96,P57,0.4177,P3,-70.02,P5,-5.711,P5,67.09,P57,0.7704,P92
11082,C94,,56.2%,Max,90.40,P4,5.114,P4,168.4,P24,9.292,P22,91.22,P4,3.883,P4,168.4,P24,91.30,P4
11082,C94,,56.2%,Min,-68.12,P5,-7.900,P5,70.13,P57,0.4177,P3,-45.46,P5,-5.133,P5,70.25,P57,12.18,P57
11082,C94,,62.5%,Max,90.40,P4,5.114,P4,172.7,P24,9.292,P22,125.2,P4,4.245,P4,172.7,P24,125.3,P4
11082,C94,,62.5%,Min,-68.12,P5,-7.900,P5,73.31,P57,0.4177,P3,-19.83,P5,-4.556,P5,73.42,P57,14.41,P3
11082,C94,,68.7%,Max,90.40,P4,5.114,P4,176.9,P24,9.292,P22,160.3,P4,4.606,P4,177.0,P24,160.4,P4
11082,C94,,68.7%,Min,-68.12,P5,-7.900,P5,76.48,P57,0.4177,P3,6.876,P5,-3.978,P5,76.59,P57,7.944,P5
11082,C94,,75.0%,Max,90.40,P4,5.114,P4,181.2,P24,9.292,P22,214.6,P24,4.967,P4,181.2,P24,214.6,P24
11082,C94,,75.0%,Min,-68.12,P5,-7.900,P5,79.65,P57,0.4177,P3,34.65,P5,-3.400,P5,79.76,P57,34.81,P5
11082,C94,,75.0%,Max,145.0,P4,17.27,P2,299.3,P24,0.2033,P2,243.6,P24,9.931,P2,299.3,P24,243.6,P24
11082,C94,,75.0%,Min,-98.08,P5,-24.27,P3,123.1,P57,-10.03,P3,48.62,P5,-13.54,P3,123.7,P57,50.28,P5
11082,C94,,81.3%,Max,145.0,P4,17.27,P2,303.6,P24,0.2033,P2,345.2,P24,12.25,P2,303.6,P24,345.2,P24
11082,C94,,81.3%,Min,-98.08,P5,-24.27,P3,126.3,P57,-10.03,P3,98.05,P5,-13.50,P3,126.8,P57,98.92,P5
11082,C94,,87.5%,Max,145.0,P4,17.27,P2,307.8,P24,0.2033,P2,448.3,P24,14.56,P2,307.8,P24,448.3,P24
11082,C94,,87.5%,Min,-98.08,P5,-24.27,P3,129.4,P57,-10.03,P3,148.6,P5,-13.46,P3,130.0,P57,149.1,P5
11082,C94,,93.8%,Max,145.0,P4,17.27,P2,312.1,P24,0.2033,P2,552.7,P24,16.99,P4,312.1,P24,552.7,P24
11082,C94,,93.8%,Min,-98.08,P5,-24.27,P3,132.6,P57,-10.03,P3,200.1,P5,-13.53,P5,133.1,P57,200.6,P5
11082,C94,6155,100.0%,Max,145.0,P4,17.27,P2,316.4,P24,0.2033,P2,658.6,P24,19.59,P4,316.4,P24,658.6,P24
11082,C94,6155,100.0%,Min,-98.08,P5,-24.27,P3,135.8,P57,-10.03,P3,252.8,P5,-13.76,P5,136.3,P57,253.1,P5
11083,C94,6155,0.0%,Max,211.6,P4,16.62,P4,-106.5,P4,1.664,P4,684.9,P8,13.15,P4,255.4,P8,685.0,P8
11083,C94,6155,0.0%,Min,-146.7,P5,-37.99,P5,-254.8,P8,-7.286,P5,275.2,P57,-28.74,P5,107.3,P57,275.2,P57
11083,C94,,12.5%,Max,211.6,P4,16.62,P4,-103.7,P4,1.664,P4,608.0,P8,14.25,P4,251.5,P8,608.0,P8
11083,C94,,12.5%,Min,-146.7,P5,-37.99,P5,-251.0,P8,-7.286,P5,243.1,P57,-23.33,P5,104.4,P57,243.1,P57
11083,C94,,25.0%,Max,211.6,P4,16.62,P4,-100.8,P4,1.664,P4,532.2,P8,15.34,P4,247.6,P8,532.2,P8
11083,C94,,25.0%,Min,-146.7,P5,-37.99,P5,-247.1,P8,-7.286,P5,211.8,P57,-17.93,P5,101.5,P57,211.8,P57
11083,C94,,37.5%,Max,211.6,P4,16.62,P4,-97.93,P4,1.664,P4,457.7,P8,16.43,P4,243.8,P8,457.7,P8
11083,C94,,37.5%,Min,-146.7,P5,-37.99,P5,-243.2,P8,-7.286,P5,181.4,P81,-12.52,P5,98.69,P57,181.4,P81
11083,C94,,50.0%,Max,211.6,P4,16.62,P4,-95.07,P4,1.664,P4,384.3,P8,17.53,P4,239.9,P8,384.4,P8
11083,C94,,50.0%,Min,-146.7,P5,-37.99,P5,-239.4,P8,-7.286,P5,151.8,P81,-7.117,P5,95.83,P57,151.8,P81
11083,C94,,50.0%,Max,175.1,P4,6.578,P4,-105.6,P4,4.150,P4,368.1,P8,3.071,P4,264.4,P8,368.1,P8
11083,C94,,50.0%,Min,-110.8,P5,-16.31,P5,-264.4,P8,-0.5524,P5,145.3,P81,-7.498,P5,105.8,P4,145.4,P81
11083,C94,,62.5%,Max,175.1,P4,6.578,P4,-102.7,P4,4.150,P4,288.3,P8,5.431,P4,260.5,P8,288.3,P8
11083,C94,,62.5%,Min,-110.8,P5,-16.31,P5,-260.5,P8,-0.5524,P5,113.2,P81,-6.898,P5,102.9,P4,113.3,P81
11083,C94,,75.0%,Max,175.1,P4,6.578,P4,-99.84,P4,4.150,P4,209.7,P8,7.792,P4,256.7,P8,209.7,P8
11083,C94,,75.0%,Min,-110.8,P5,-16.31,P5,-256.6,P8,-0.5524,P5,82.02,P81,-6.298,P5,100.1,P4,82.02,P81
11083,C94,,87.5%,Max,175.1,P4,6.578,P4,-96.98,P4,4.150,P4,132.2,P8,10.15,P4,252.8,P8,132.3,P8
11083,C94,,87.5%,Min,-110.8,P5,-16.31,P5,-252.8,P8,-0.5524,P5,51.67,P81,-5.698,P5,97.20,P4,51.72,P81
11083,C94,7111,100.0%,Max,175.1,P4,6.578,P4,-94.12,P4,4.150,P4,55.96,P8,12.51,P4,249.0,P8,56.20,P24
11083,C94,7111,100.0%,Min,-110.8,P5,-16.31,P5,-248.9,P8,-0.5524,P5,22.19,P81,-5.098,P5,94.35,P4,22.51,P57
11084,C94,7123,0.0%,Max,30.02,P2,4.476,P2,-31.46,P57,4.837,P6,8.046,P60,3.928,P2,79.19,P24,11.19,P81
11084,C94,7123,0.0%,Min,-33.25,P3,-5.342,P3,-79.18,P24,1.263,P61,-10.95,P81,-4.560,P3,31.60,P57,0.2669,P11
11084,C94,,8.3%,Max,30.02,P2,4.476,P2,-29.21,P57,4.837,P6,-7.105,P84,3.936,P2,76.15,P24,38.78,P6
11084,C94,,8.3%,Min,-33.25,P3,-5.342,P3,-76.15,P24,1.263,P61,-38.77,P6,-4.222,P3,29.36,P57,7.155,P84
11084,C94,,16.7%,Max,30.02,P2,4.476,P2,-26.96,P57,4.837,P6,-21.20,P84,3.943,P2,73.11,P24,67.67,P6
11084,C94,,16.7%,Min,-33.25,P3,-5.342,P3,-73.11,P24,1.263,P61,-67.67,P6,-3.884,P3,27.13,P57,21.20,P84
11084,C94,,25.0%,Max,30.02,P2,4.476,P2,-24.71,P57,4.837,P6,-34.09,P82,3.950,P2,70.07,P24,95.35,P6
11084,C94,,25.0%,Min,-33.25,P3,-5.342,P3,-70.07,P24,1.263,P61,-95.35,P6,-3.547,P3,24.89,P57,34.10,P82
11084,C94,,33.3%,Max,30.02,P2,4.476,P2,-22.46,P57,4.837,P6,-46.07,P82,3.958,P2,67.04,P24,121.8,P6
11084,C94,,33.3%,Min,-33.25,P3,-5.342,P3,-67.03,P24,1.263,P61,-121.8,P6,-3.209,P3,22.66,P57,46.08,P82
11084,C94,,33.3%,Max,17.82,P2,3.527,P2,-10.03,P79,0.9002,P4,-52.71,P82,2.745,P2,26.70,P8,134.9,P6
11084,C94,,33.3%,Min,-22.71,P3,-4.592,P3,-26.70,P8,-0.8300,P5,-134.9,P6,-3.509,P3,10.29,P79,52.73,P82
11084,C94,,41.7%,Max,17.82,P2,3.527,P2,-7.782,P79,0.9002,P4,-58.75,P82,3.011,P2,23.67,P8,143.7,P6
11084,C94,,41.7%,Min,-22.71,P3,-4.592,P3,-23.67,P8,-0.8300,P5,-143.7,P6,-3.351,P3,8.107,P79,58.75,P82
11084,C94,,50.0%,Max,17.82,P2,3.527,P2,-5.532,P79,0.9002,P4,-63.88,P82,3.277,P2,20.63,P8,151.2,P6
11084,C94,,50.0%,Min,-22.71,P3,-4.592,P3,-20.63,P8,-0.8300,P5,-151.2,P6,-3.192,P3,5.943,P77,63.88,P82
11084,C94,,58.3%,Max,17.82,P2,3.527,P2,-3.282,P79,0.9002,P4,-68.12,P82,3.543,P2,17.59,P8,157.6,P6
11084,C94,,58.3%,Min,-22.71,P3,-4.592,P3,-17.59,P8,-0.8300,P5,-157.5,P6,-3.034,P3,3.781,P77,68.12,P82
11084,C94,,66.7%,Max,17.82,P2,3.527,P2,-1.032,P79,0.9002,P4,-71.37,P46,3.809,P2,14.55,P8,162.7,P31
11084,C94,,66.7%,Min,-22.71,P3,-4.592,P3,-14.55,P8,-0.8300,P5,-162.7,P31,-2.875,P3,1.845,P77,71.37,P46
11084,C94,,66.7%,Max,7.738,P4,4.353,P2,89.09,P6,-1.209,P79,-66.20,P59,2.996,P2,89.09,P6,153.3,P6
11084,C94,,66.7%,Min,-13.21,P5,-4.915,P3,33.88,P84,-3.711,P8,-153.3,P6,-3.313,P3,33.94,P84,66.21,P59
11084,C94,,75.0%,Max,7.738,P4,4.353,P2,92.12,P6,-1.209,P79,-51.46,P57,3.378,P2,92.13,P6,117.5,P24
11084,C94,,75.0%,Min,-13.21,P5,-4.915,P3,36.13,P84,-3.711,P8,-117.5,P24,-3.471,P3,36.18,P84,51.46,P57
11084,C94,,83.3%,Max,7.738,P4,4.353,P2,95.16,P6,-1.209,P79,-34.50,P81,3.759,P2,95.17,P6,81.08,P8
11084,C94,,83.3%,Min,-13.21,P5,-4.915,P3,38.38,P84,-3.711,P8,-81.08,P8,-3.628,P3,38.43,P84,34.50,P81
11084,C94,,91.7%,Max,7.738,P4,4.353,P2,98.20,P6,-1.209,P79,-16.49,P81,4.141,P2,98.21,P6,43.55,P8
11084,C94,,91.7%,Min,-13.21,P5,-4.915,P3,40.63,P84,-3.711,P8,-43.55,P8,-3.786,P3,40.68,P84,16.53,P81
11084,C94,6065,100.0%,Max,7.738,P4,4.353,P2,101.2,P6,-1.209,P79,2.407,P81,4.522,P2,101.2,P6,5.514,P9
11084,C94,6065,100.0%,Min,-13.21,P5,-4.915,P3,42.88,P84,-3.711,P8,-5.440,P9,-3.943,P3,42.93,P84,0.8327,P72
11085,C94,6163,0.0%,Max,287.5,P2,10.21,P2,124.9,P12,-3.585,P4,124.6,P21,9.626,P2,124.9,P12,124.6,P21
11085,C94,6163,0.0%,Min,-158.5,P3,-5.251,P3,-91.59,P57,-12.87,P28,3.452,P5,-4.412,P3,3.215,P42,5.321,P5
11085,C94,,12.5%,Max,287.5,P2,10.21,P2,131.4,P12,-3.585,P4,125.5,P4,8.827,P2,131.4,P12,125.7,P4
11085,C94,,12.5%,Min,-158.5,P3,-5.251,P3,-86.76,P57,-12.87,P28,7.392,P5,-6.159,P3,3.051,P43,9.300,P5
11085,C94,,25.1%,Max,287.5,P2,10.21,P2,137.9,P12,-3.585,P4,185.3,P13,8.028,P2,137.9,P12,185.3,P13
11085,C94,,25.1%,Min,-158.5,P3,-5.251,P3,-81.94,P57,-12.87,P28,4.142,P57,-7.906,P3,2.560,P92,4.185,P57
11085,C94,,37.6%,Max,287.5,P2,10.21,P2,144.4,P12,-3.585,P4,256.5,P13,7.229,P2,144.4,P12,256.5,P13
11085,C94,,37.6%,Min,-158.5,P3,-5.251,P3,-77.11,P57,-12.87,P28,-36.65,P57,-9.653,P3,3.871,P93,2.284,P69
11085,C94,,50.1%,Max,287.5,P2,10.21,P2,151.0,P12,-3.585,P4,331.4,P12,6.431,P2,151.0,P12,331.4,P12
11085,C94,,50.1%,Min,-158.5,P3,-5.251,P3,-72.28,P57,-12.87,P28,-74.96,P57,-11.40,P3,5.263,P55,19.02,P68
11085,C94,,50.1%,Max,323.1,P2,33.63,P4,300.8,P12,9.086,P82,376.1,P12,31.05,P4,300.9,P12,376.1,P12
11085,C94,,50.1%,Min,-223.1,P57,-24.20,P82,-9.859,P57,-5.942,P79,-90.69,P57,-22.02,P82,8.751,P45,29.90,P68
11085,C94,,62.6%,Max,323.1,P2,33.63,P4,307.3,P12,9.086,P82,531.3,P12,29.70,P4,307.4,P12,531.3,P12
11085,C94,,62.6%,Min,-223.1,P57,-24.20,P82,-5.052,P57,-5.942,P79,-94.50,P57,-25.54,P5,7.141,P56,12.92,P68
11085,C94,,75.1%,Max,323.1,P2,33.63,P4,313.8,P12,9.086,P82,689.9,P12,28.34,P4,313.9,P12,689.9,P12
11085,C94,,75.1%,Min,-223.1,P57,-24.20,P82,-0.2457,P57,-5.942,P79,-95.85,P57,-29.58,P5,6.536,P56,2.107,P80
11085,C94,,87.5%,Max,323.1,P2,33.63,P4,320.3,P12,9.086,P82,851.8,P12,26.98,P4,320.3,P12,851.8,P12
11085,C94,,87.5%,Min,-223.1,P57,-24.20,P82,4.561,P57,-5.942,P79,-94.75,P57,-33.61,P5,8.296,P57,18.32,P81
11085,C94,4834,100.0%,Max,323.1,P2,33.63,P4,326.8,P12,9.086,P82,1017.,P12,27.41,P82,326.8,P12,1017.,P12
11085,C94,4834,100.0%,Min,-223.1,P57,-24.20,P82,9.367,P57,-5.942,P79,-91.19,P57,-37.65,P5,11.65,P57,20.67,P44
11086,C94,4863,0.0%,Max,699.6,P2,15.18,P2,-129.5,P67,-42.46,P2,868.1,P24,14.86,P2,573.8,P24,868.1,P24
11086,C94,4863,0.0%,Min,-742.7,P3,-18.85,P3,-573.8,P24,-108.0,P8,211.5,P67,-17.61,P3,129.5,P67,211.6,P67
11086,C94,,10.4%,Max,699.6,P2,15.18,P2,-125.8,P67,-42.46,P2,648.2,P24,14.18,P2,568.9,P24,648.2,P24
11086,C94,,10.4%,Min,-742.7,P3,-18.85,P3,-568.9,P24,-108.0,P8,162.4,P67,-15.53,P3,125.9,P67,162.4,P67
11086,C94,,20.8%,Max,699.6,P2,15.18,P2,-122.2,P67,-42.46,P2,430.3,P24,13.50,P2,564.0,P24,430.3,P24
11086,C94,,20.8%,Min,-742.7,P3,-18.85,P3,-564.0,P24,-108.0,P8,111.6,P55,-13.44,P3,122.3,P67,111.6,P55
11086,C94,,31.1%,Max,699.6,P2,15.18,P2,-118.6,P67,-42.46,P2,214.2,P24,12.83,P2,559.1,P24,214.2,P24
11086,C94,,31.1%,Min,-742.7,P3,-18.85,P3,-559.1,P24,-108.0,P8,41.52,P3,-11.35,P3,118.6,P67,43.04,P3
11086,C94,,41.5%,Max,699.6,P2,15.18,P2,-115.0,P67,-42.46,P2,28.29,P2,12.15,P2,554.3,P24,30.78,P2
11086,C94,,41.5%,Min,-742.7,P3,-18.85,P3,-554.2,P24,-108.0,P8,-28.51,P3,-9.268,P3,115.0,P67,3.728,P88
11086,C94,,41.5%,Max,685.6,P2,30.28,P2,70.47,P67,68.62,P8,20.19,P67,25.36,P2,183.4,P12,45.14,P3
11086,C94,,41.5%,Min,-788.2,P3,-21.85,P3,-183.1,P12,27.42,P3,-41.09,P3,-18.68,P3,1.877,P35,0.6924,P34
11086,C94,,48.8%,Max,685.6,P2,30.28,P2,73.03,P67,68.62,P8,39.65,P67,20.30,P2,180.9,P5,84.64,P12
11086,C94,,48.8%,Min,-788.2,P3,-21.85,P3,-180.0,P5,27.42,P3,-84.48,P12,-15.90,P3,1.652,P35,0.2366,P34
11086,C94,,56.1%,Max,685.6,P2,30.28,P2,75.58,P67,68.62,P8,59.80,P67,15.23,P2,178.3,P5,132.8,P12
11086,C94,,56.1%,Min,-788.2,P3,-21.85,P3,-177.5,P5,27.42,P3,-132.7,P12,-13.12,P3,1.877,P34,0.6193,P34
11086,C94,,63.4%,Max,685.6,P2,30.28,P2,78.13,P67,68.62,P8,80.64,P67,10.17,P2,175.8,P5,180.1,P12
11086,C94,,63.4%,Min,-788.2,P3,-21.85,P3,-174.9,P5,27.42,P3,-180.1,P12,-10.34,P3,2.886,P20,0.5010,P78
11086,C94,,70.8%,Max,685.6,P2,30.28,P2,80.69,P67,68.62,P8,102.2,P67,5.530,P55,173.2,P5,226.5,P12
11086,C94,,70.8%,Min,-788.2,P3,-21.85,P3,-172.4,P5,27.42,P3,-226.5,P12,-7.566,P3,2.434,P21,1.649,P92
11086,C94,,70.8%,Max,698.5,P2,99.27,P2,94.72,P67,81.03,P8,105.7,P67,37.69,P2,172.5,P5,234.7,P12
11086,C94,,70.8%,Min,-862.8,P3,-79.16,P3,-158.8,P5,32.77,P76,-234.6,P12,-32.64,P3,4.880,P10,2.732,P34
11086,C94,,78.1%,Max,698.5,P2,99.27,P2,97.28,P67,81.03,P8,131.7,P67,41.64,P2,170.1,P5,273.0,P12
11086,C94,,78.1%,Min,-862.8,P3,-79.16,P3,-156.2,P5,32.77,P76,-273.0,P12,-42.04,P3,4.504,P32,1.699,P46
11086,C94,,85.4%,Max,698.5,P2,99.27,P2,99.83,P67,81.03,P8,158.4,P67,45.58,P2,167.8,P5,310.6,P12
11086,C94,,85.4%,Min,-862.8,P3,-79.16,P3,-153.7,P5,32.77,P76,-310.4,P12,-51.44,P3,1.529,P32,2.349,P21
11086,C94,,92.7%,Max,698.5,P2,99.27,P2,102.4,P67,81.03,P8,185.9,P67,49.53,P2,165.5,P5,347.4,P12
11086,C94,,92.7%,Min,-862.8,P3,-79.16,P3,-151.1,P5,32.77,P76,-347.0,P12,-60.84,P3,2.855,P32,6.845,P31
11086,C94,4850,100.0%,Max,698.5,P2,99.27,P2,104.9,P67,81.03,P8,214.0,P67,53.48,P2,163.1,P5,384.6,P5
11086,C94,4850,100.0%,Min,-862.8,P3,-79.16,P3,-148.5,P5,32.77,P76,-382.6,P12,-70.25,P3,5.129,P33,6.953,P15
11087,C94,7610,0.0%,Max,716.9,P2,138.6,P2,-397.4,P55,-76.03,P55,1429.,P23,107.5,P2,869.8,P23,1429.,P23
11087,C94,7610,0.0%,Min,-1061.,P3,-105.1,P3,-869.7,P23,-201.8,P8,600.8,P67,-91.85,P3,397.9,P43,601.7,P67
11087,C94,,3.4%,Max,716.9,P2,138.6,P2,-394.3,P55,-76.03,P55,1146.,P23,92.01,P2,865.7,P23,1146.,P23
11087,C94,,3.4%,Min,-1061.,P3,-105.1,P3,-865.6,P23,-201.8,P8,471.7,P67,-87.20,P3,394.9,P43,472.3,P67
11087,C94,,6.9%,Max,716.9,P2,138.6,P2,-391.3,P55,-76.03,P55,865.6,P23,76.48,P2,861.6,P23,865.6,P23
11087,C94,,6.9%,Min,-1061.,P3,-105.1,P3,-861.5,P23,-201.8,P8,343.6,P67,-82.55,P3,391.8,P43,343.9,P67
11087,C94,,10.3%,Max,716.9,P2,138.6,P2,-388.2,P55,-76.03,P55,586.1,P23,60.94,P2,857.4,P23,586.2,P23
11087,C94,,10.3%,Min,-1061.,P3,-105.1,P3,-857.3,P23,-201.8,P8,212.3,P3,-77.90,P3,388.7,P43,216.6,P67
11087,C94,,13.8%,Max,716.9,P2,138.6,P2,-385.1,P55,-76.03,P55,307.9,P23,45.41,P2,853.3,P23,308.5,P23
11087,C94,,13.8%,Min,-1061.,P3,-105.1,P3,-853.2,P23,-201.8,P8,73.72,P3,-73.25,P3,385.7,P43,90.69,P67
11087,C94,,13.8%,Max,723.9,P2,2.657,P2,-177.0,P67,-7.742,P2,154.6,P11,-0.1969,P2,394.6,P23,155.1,P11
11087,C94,,13.8%,Min,-965.1,P3,-11.71,P3,-394.5,P23,-21.19,P8,-5.980,P3,-12.58,P31,177.1,P67,11.72,P5
11087,C94,,18.2%,Max,723.9,P2,2.657,P2,-173.0,P67,-7.742,P2,48.93,P2,1.961,P2,389.3,P23,90.47,P3
11087,C94,,18.2%,Min,-965.1,P3,-11.71,P3,-389.2,P23,-21.19,P8,-89.88,P3,-10.35,P3,173.1,P67,3.451,P58
11087,C94,,22.6%,Max,723.9,P2,2.657,P2,-169.1,P67,-7.742,P2,-41.95,P2,4.119,P2,384.0,P23,206.7,P8
11087,C94,,22.6%,Min,-965.1,P3,-11.71,P3,-383.9,P23,-21.19,P8,-206.6,P8,-8.717,P3,169.2,P67,42.15,P2
11087,C94,,27.0%,Max,723.9,P2,2.657,P2,-165.1,P67,-7.742,P2,-124.3,P57,6.277,P2,378.7,P23,364.0,P8
11087,C94,,27.0%,Min,-965.1,P3,-11.71,P3,-378.6,P23,-21.19,P8,-364.0,P8,-7.081,P3,165.2,P67,124.3,P57
11087,C94,,31.5%,Max,723.9,P2,2.657,P2,-161.2,P67,-7.742,P2,-198.7,P57,8.435,P2,373.3,P23,519.2,P8
11087,C94,,31.5%,Min,-965.1,P3,-11.71,P3,-373.2,P23,-21.19,P8,-519.2,P8,-5.446,P3,161.3,P67,198.8,P57
11087,C94,,31.5%,Max,687.1,P2,3.119,P2,-139.6,P67,-1.288,P2,-219.6,P57,0.6873,P2,317.8,P23,562.3,P8
11087,C94,,31.5%,Min,-879.5,P3,-7.682,P3,-317.7,P23,-5.492,P8,-562.3,P8,-5.092,P3,139.6,P67,219.6,P57
11087,C94,,35.9%,Max,687.1,P2,3.119,P2,-135.7,P67,-1.288,P2,-283.4,P57,2.531,P2,312.4,P23,691.8,P8
11087,C94,,35.9%,Min,-879.5,P3,-7.682,P3,-312.4,P23,-5.492,P8,-691.8,P8,-5.025,P3,135.7,P67,283.4,P57
11087,C94,,40.3%,Max,687.1,P2,3.119,P2,-131.7,P67,-1.288,P2,-345.5,P57,4.375,P2,307.1,P23,819.2,P8
11087,C94,,40.3%,Min,-879.5,P3,-7.682,P3,-307.1,P23,-5.492,P8,-819.2,P8,-4.958,P3,131.8,P67,345.5,P57
11087,C94,,44.7%,Max,687.1,P2,3.119,P2,-127.8,P67,-1.288,P2,-405.9,P57,6.219,P2,301.8,P23,944.2,P8
11087,C94,,44.7%,Min,-879.5,P3,-7.682,P3,-301.8,P23,-5.492,P8,-944.2,P8,-4.891,P3,127.8,P67,405.9,P57
11087,C94,,49.2%,Max,687.1,P2,3.119,P2,-123.9,P67,-1.288,P2,-464.7,P57,8.063,P2,296.5,P23,1067.,P8
11087,C94,,49.2%,Min,-879.5,P3,-7.682,P3,-296.4,P23,-5.492,P8,-1067.,P8,-4.824,P3,123.9,P67,464.7,P57
11087,C94,,49.2%,Max,666.6,P2,4.538,P2,246.9,P8,1.611,P2,-464.2,P57,5.636,P2,246.9,P8,1062.,P8
11087,C94,,49.2%,Min,-836.1,P3,-6.702,P3,98.12,P71,0.06739,P3,-1062.,P8,-7.889,P3,98.21,P71,464.2,P57
11087,C94,,53.4%,Max,666.6,P2,4.538,P2,252.0,P8,1.611,P2,-423.2,P57,5.059,P2,252.0,P8,961.4,P8
11087,C94,,53.4%,Min,-836.1,P3,-6.702,P3,101.9,P71,0.06739,P3,-961.4,P8,-6.437,P3,102.0,P71,423.2,P57
11087,C94,,57.7%,Max,666.6,P2,4.538,P2,257.2,P8,1.611,P2,-380.7,P57,4.483,P2,257.2,P8,858.4,P8
11087,C94,,57.7%,Min,-836.1,P3,-6.702,P3,105.7,P71,0.06739,P3,-858.4,P8,-4.985,P3,105.8,P71,380.7,P57
11087,C94,,62.0%,Max,666.6,P2,4.538,P2,262.3,P8,1.611,P2,-336.7,P57,3.907,P2,262.3,P8,753.3,P8
11087,C94,,62.0%,Min,-836.1,P3,-6.702,P3,109.5,P71,0.06739,P3,-753.3,P8,-3.533,P3,109.6,P71,336.7,P57
11087,C94,,66.3%,Max,666.6,P2,4.538,P2,267.5,P8,1.611,P2,-291.1,P57,3.330,P2,267.5,P8,646.7,P24
11087,C94,,66.3%,Min,-836.1,P3,-6.702,P3,113.4,P71,0.06739,P3,-646.7,P24,-2.081,P3,113.4,P71,291.1,P57
11087,C94,,66.3%,Max,647.8,P2,5.136,P2,332.9,P8,16.80,P8,-272.0,P57,5.182,P2,332.9,P8,602.4,P24
11087,C94,,66.3%,Min,-817.0,P3,-5.720,P3,138.4,P71,6.705,P5,-602.4,P24,-5.613,P3,138.5,P71,272.0,P57
11087,C94,,70.6%,Max,647.8,P2,5.136,P2,338.1,P8,16.80,P8,-208.2,P67,4.904,P2,338.1,P8,469.0,P24
11087,C94,,70.6%,Min,-817.0,P3,-5.720,P3,142.2,P71,6.705,P5,-469.0,P24,-5.099,P3,142.3,P71,208.2,P67
11087,C94,,74.8%,Max,647.8,P2,5.136,P2,343.2,P8,16.80,P8,-137.9,P2,4.626,P2,343.2,P8,334.9,P6
11087,C94,,74.8%,Min,-817.0,P3,-5.720,P3,146.0,P71,6.705,P5,-334.9,P6,-4.585,P3,146.1,P71,138.0,P2
11087,C94,,79.1%,Max,647.8,P2,5.136,P2,348.3,P8,16.80,P8,-61.14,P2,4.349,P2,348.3,P8,199.1,P6
11087,C94,,79.1%,Min,-817.0,P3,-5.720,P3,149.9,P71,6.705,P5,-199.1,P6,-4.071,P3,149.9,P71,61.29,P2
11087,C94,,83.4%,Max,647.8,P2,5.136,P2,353.5,P8,16.80,P8,17.15,P2,4.071,P2,353.5,P8,70.27,P3
11087,C94,,83.4%,Min,-817.0,P3,-5.720,P3,153.7,P71,6.705,P5,-70.18,P3,-3.557,P3,153.7,P71,2.628,P91
11087,C94,,83.4%,Max,629.2,P2,16.74,P2,894.0,P8,175.0,P8,74.88,P2,13.51,P2,894.0,P8,76.09,P2
11087,C94,,83.4%,Min,-815.4,P3,-8.099,P3,390.6,P75,69.20,P79,-18.51,P3,-7.504,P3,390.6,P75,6.190,P70
11087,C94,,87.5%,Max,629.2,P2,16.74,P2,899.0,P8,175.0,P8,409.7,P8,11.68,P2,899.0,P8,409.8,P8
11087,C94,,87.5%,Min,-815.4,P3,-8.099,P3,394.3,P75,69.20,P79,153.3,P3,-9.072,P3,394.3,P75,153.6,P3
11087,C94,,91.7%,Max,629.2,P2,16.74,P2,904.0,P8,175.0,P8,763.9,P8,9.854,P2,904.0,P8,763.9,P8
11087,C94,,91.7%,Min,-815.4,P3,-8.099,P3,398.0,P75,69.20,P79,314.9,P70,-10.64,P3,398.0,P75,314.9,P70
11087,C94,,95.8%,Max,629.2,P2,16.74,P2,908.9,P8,175.0,P8,1120.,P8,8.026,P2,909.0,P8,1120.,P8
11087,C94,,95.8%,Min,-815.4,P3,-8.099,P3,401.7,P75,69.20,P79,472.1,P71,-12.21,P3,401.7,P75,472.1,P71
11087,C94,4863,100.0%,Max,629.2,P2,16.74,P2,913.9,P8,175.0,P8,1478.,P8,6.199,P2,914.0,P8,1478.,P8
11087,C94,4863,100.0%,Min,-815.4,P3,-8.099,P3,405.4,P75,69.20,P79,630.7,P71,-13.78,P3,405.4,P75,630.7,P71
11088,C94,5989,0.0%,Max,99.45,P69,3.369,P69,-120.1,P47,-1.916,P2,358.5,P8,2.563,P2,316.3,P33,358.5,P8
11088,C94,5989,0.0%,Min,-164.9,P5,-5.937,P3,-316.3,P33,-10.98,P6,111.5,P3,-4.658,P3,120.1,P47,111.6,P3
11088,C94,,5.9%,Max,99.45,P69,3.369,P69,-116.1,P47,-1.916,P2,228.5,P8,3.296,P2,310.9,P33,228.5,P8
11088,C94,,5.9%,Min,-164.9,P5,-5.937,P3,-310.9,P33,-10.98,P6,51.46,P3,-4.169,P3,116.2,P47,51.63,P3
11088,C94,,11.9%,Max,99.45,P69,3.369,P69,-112.2,P47,-1.916,P2,115.6,P2,4.028,P2,305.6,P33,115.7,P2
11088,C94,,11.9%,Min,-164.9,P5,-5.937,P3,-305.6,P33,-10.98,P6,-6.888,P3,-3.681,P3,112.2,P47,7.672,P5
11088,C94,,17.8%,Max,99.45,P69,3.369,P69,-108.2,P47,-1.916,P2,42.19,P2,4.760,P2,300.2,P33,63.66,P3
11088,C94,,17.8%,Min,-164.9,P5,-5.937,P3,-300.2,P33,-10.98,P6,-63.58,P3,-3.192,P3,108.3,P47,2.131,P40
11088,C94,,23.7%,Max,99.45,P69,3.369,P69,-104.3,P47,-1.916,P2,-29.58,P2,5.493,P2,294.9,P33,171.6,P31
11088,C94,,23.7%,Min,-164.9,P5,-5.937,P3,-294.9,P33,-10.98,P6,-171.6,P31,-3.456,P69,104.3,P47,30.08,P2
11088,C94,,23.7%,Max,80.98,P69,0.8615,P69,-81.45,P47,0.1336,P92,-51.02,P2,1.159,P4,233.3,P33,213.3,P33
11088,C94,,23.7%,Min,-135.1,P5,-3.736,P12,-233.3,P33,-9.233,P7,-213.3,P33,-2.829,P5,81.46,P47,51.02,P2
11088,C94,,29.7%,Max,80.98,P69,0.8615,P69,-77.50,P47,0.1336,P92,-90.92,P49,1.853,P4,228.0,P33,310.2,P33
11088,C94,,29.7%,Min,-135.1,P5,-3.736,P12,-228.0,P33,-9.233,P7,-310.2,P33,-2.301,P5,77.51,P47,90.92,P49
11088,C94,,35.6%,Max,80.98,P69,0.8615,P69,-73.54,P47,0.1336,P92,-123.5,P49,2.548,P4,222.7,P33,404.8,P33
11088,C94,,35.6%,Min,-135.1,P5,-3.736,P12,-222.7,P33,-9.233,P7,-404.8,P33,-1.773,P5,73.56,P47,123.5,P49
11088,C94,,41.6%,Max,80.98,P69,0.8615,P69,-69.59,P47,0.1336,P92,-154.4,P49,3.242,P4,217.3,P33,497.2,P33
11088,C94,,41.6%,Min,-135.1,P5,-3.736,P12,-217.3,P33,-9.233,P7,-497.2,P33,-1.703,P69,69.60,P47,154.4,P49
11088,C94,,47.5%,Max,80.98,P69,0.8615,P69,-65.63,P47,0.1336,P92,-183.6,P49,4.458,P12,212.0,P33,587.4,P33
11088,C94,,47.5%,Min,-135.1,P5,-3.736,P12,-212.0,P33,-9.233,P7,-587.4,P33,-2.064,P69,65.65,P47,183.7,P49
11088,C94,,47.5%,Max,70.38,P69,1.233,P4,146.2,P22,18.80,P92,-191.5,P49,2.972,P2,146.2,P22,639.9,P33
11088,C94,,47.5%,Min,-146.4,P3,-2.565,P5,22.04,P5,-14.78,P76,-639.9,P33,-2.359,P3,22.18,P5,191.5,P49
11088,C94,,51.9%,Max,70.38,P69,1.233,P4,150.1,P22,18.80,P92,-174.0,P49,3.228,P2,150.1,P22,596.6,P33
11088,C94,,51.9%,Min,-146.4,P3,-2.565,P5,24.95,P5,-14.78,P76,-596.6,P33,-2.374,P68,25.08,P5,174.0,P49
11088,C94,,56.2%,Max,70.38,P69,1.233,P4,154.1,P22,18.80,P92,-155.6,P49,3.485,P2,154.1,P22,552.1,P33
11088,C94,,56.2%,Min,-146.4,P3,-2.565,P5,27.86,P5,-14.78,P76,-552.1,P33,-2.695,P69,27.98,P5,155.6,P49
11088,C94,,60.6%,Max,70.38,P69,1.233,P4,158.0,P22,18.80,P92,-136.3,P49,3.822,P49,158.0,P22,506.3,P33
11088,C94,,60.6%,Min,-146.4,P3,-2.565,P5,30.78,P5,-14.78,P76,-506.3,P33,-3.024,P69,30.88,P5,136.3,P49
11088,C94,,65.0%,Max,70.38,P69,1.233,P4,161.9,P22,18.80,P92,-102.8,P4,4.344,P49,161.9,P22,459.3,P33
11088,C94,,65.0%,Min,-146.4,P3,-2.565,P5,33.69,P5,-14.78,P76,-459.3,P33,-3.354,P69,33.79,P5,102.9,P4
11088,C94,,65.0%,Max,75.13,P2,2.517,P4,194.2,P22,20.61,P92,-94.70,P4,5.678,P2,194.2,P22,448.5,P33
11088,C94,,65.0%,Min,-150.6,P3,-1.755,P5,49.30,P5,-15.87,P76,-448.5,P33,-4.539,P68,49.33,P5,94.85,P4
11088,C94,,69.4%,Max,75.13,P2,2.517,P4,198.2,P22,20.61,P92,-52.44,P4,5.433,P2,198.2,P22,390.5,P21
11088,C94,,69.4%,Min,-150.6,P3,-1.755,P5,52.21,P5,-15.87,P76,-390.5,P21,-4.563,P68,52.24,P5,52.68,P4
11088,C94,,73.7%,Max,75.13,P2,2.517,P4,202.1,P22,20.61,P92,-9.289,P4,5.189,P2,202.1,P22,337.2,P21
11088,C94,,73.7%,Min,-150.6,P3,-1.755,P5,55.12,P5,-15.87,P76,-337.2,P21,-4.617,P69,55.15,P5,10.33,P4
11088,C94,,78.1%,Max,75.13,P2,2.517,P4,206.0,P22,20.61,P92,34.77,P4,4.944,P2,206.0,P22,282.7,P21
11088,C94,,78.1%,Min,-150.6,P3,-1.755,P5,58.04,P5,-15.87,P76,-282.7,P21,-4.673,P69,58.06,P5,26.16,P2
11088,C94,,82.5%,Max,75.13,P2,2.517,P4,210.0,P22,20.61,P92,79.72,P4,4.700,P73,210.0,P22,253.8,P5
11088,C94,,82.5%,Min,-150.6,P3,-1.755,P5,60.95,P5,-15.87,P76,-253.8,P5,-4.730,P69,60.97,P5,7.960,P49
11088,C94,,82.5%,Max,79.97,P2,35.90,P4,274.0,P22,24.20,P92,94.25,P4,24.19,P2,274.2,P22,244.4,P5
11088,C94,,82.5%,Min,-158.5,P3,-19.89,P5,90.37,P5,-15.48,P76,-244.0,P5,-18.76,P68,92.54,P5,12.96,P35
11088,C94,,86.9%,Max,79.97,P2,35.90,P4,277.9,P22,24.20,P92,150.9,P4,20.34,P4,278.1,P22,215.3,P5
11088,C94,,86.9%,Min,-158.5,P3,-19.89,P5,93.29,P5,-15.48,P76,-214.7,P5,-16.05,P5,95.38,P5,1.882,P62
11088,C94,,91.2%,Max,79.97,P2,35.90,P4,281.9,P22,24.20,P92,208.4,P4,17.53,P4,282.1,P22,209.1,P4
11088,C94,,91.2%,Min,-158.5,P3,-19.89,P5,96.20,P5,-15.48,P76,-184.5,P5,-18.20,P5,98.23,P5,2.952,P31
11088,C94,,95.6%,Max,79.97,P2,35.90,P4,285.8,P22,24.20,P92,266.8,P4,14.72,P4,286.0,P22,267.2,P4
11088,C94,,95.6%,Min,-158.5,P3,-19.89,P5,99.11,P5,-15.48,P76,-153.4,P5,-20.34,P5,101.1,P5,1.686,P91
11088,C94,4788,100.0%,Max,79.97,P2,35.90,P4,289.7,P22,24.20,P92,326.1,P4,11.91,P4,289.9,P22,326.3,P4
11088,C94,4788,100.0%,Min,-158.5,P3,-19.89,P5,102.0,P5,-15.48,P76,-121.4,P5,-22.49,P5,103.9,P5,2.534,P45
11089,C94,7148,0.0%,Max,30.36,P2,5.480,P2,-39.66,P81,-2.201,P4,12.64,P10,4.661,P2,92.16,P22,12.66,P10
11089,C94,7148,0.0%,Min,-35.84,P3,-3.997,P3,-92.15,P22,-6.598,P6,-2.357,P5,-3.460,P3,39.68,P81,1.095,P55
11089,C94,,8.3%,Max,30.36,P2,5.480,P2,-37.42,P81,-2.201,P4,-5.952,P58,4.220,P2,89.14,P22,29.18,P6
11089,C94,,8.3%,Min,-35.84,P3,-3.997,P3,-89.13,P22,-6.598,P6,-29.17,P6,-3.606,P3,37.44,P81,5.953,P58
11089,C94,,16.7%,Max,30.36,P2,5.480,P2,-35.18,P81,-2.201,P4,-22.30,P58,3.778,P2,86.11,P22,63.07,P6
11089,C94,,16.7%,Min,-35.84,P3,-3.997,P3,-86.11,P22,-6.598,P6,-63.07,P6,-3.752,P3,35.20,P81,22.30,P58
11089,C94,,25.0%,Max,30.36,P2,5.480,P2,-32.94,P81,-2.201,P4,-37.77,P58,3.337,P2,83.09,P22,95.78,P6
11089,C94,,25.0%,Min,-35.84,P3,-3.997,P3,-83.09,P22,-6.598,P6,-95.78,P6,-3.898,P3,32.97,P81,37.77,P58
11089,C94,,33.3%,Max,30.36,P2,5.480,P2,-30.71,P81,-2.201,P4,-52.35,P58,2.895,P2,80.07,P22,127.3,P6
11089,C94,,33.3%,Min,-35.84,P3,-3.997,P3,-80.06,P22,-6.598,P6,-127.3,P6,-4.044,P3,30.73,P81,52.35,P58
11089,C94,,33.3%,Max,22.61,P2,4.564,P2,-5.969,P81,3.757,P24,-60.14,P58,3.476,P2,13.45,P8,144.1,P6
11089,C94,,33.3%,Min,-27.83,P3,-3.639,P3,-13.45,P8,1.260,P5,-144.1,P6,-2.855,P3,6.201,P81,60.14,P58
11089,C94,,41.7%,Max,22.61,P2,4.564,P2,-3.730,P81,3.757,P24,-63.34,P58,3.336,P2,10.43,P8,148.3,P6
11089,C94,,41.7%,Min,-27.83,P3,-3.639,P3,-10.43,P8,1.260,P5,-148.3,P6,-3.082,P3,4.091,P81,63.34,P58
11089,C94,,50.0%,Max,22.61,P2,4.564,P2,-1.491,P81,3.757,P24,-65.66,P58,3.196,P2,7.405,P8,151.3,P6
11089,C94,,50.0%,Min,-27.83,P3,-3.639,P3,-7.405,P8,1.260,P5,-151.3,P6,-3.308,P3,2.245,P57,65.66,P58
11089,C94,,58.3%,Max,22.61,P2,4.564,P2,0.7484,P81,3.757,P24,-67.10,P58,3.056,P2,4.731,P3,153.1,P6
11089,C94,,58.3%,Min,-27.83,P3,-3.639,P3,-4.382,P8,1.260,P5,-153.1,P6,-3.535,P3,0.8057,P44,67.10,P58
11089,C94,,66.7%,Max,22.61,P2,4.564,P2,2.987,P81,3.757,P24,-67.47,P81,2.916,P2,5.321,P2,153.8,P8
11089,C94,,66.7%,Min,-27.83,P3,-3.639,P3,-1.359,P8,1.260,P5,-153.8,P8,-3.762,P3,0.5019,P34,67.48,P72
11089,C94,,66.7%,Max,16.67,P2,5.042,P2,81.76,P6,1.554,P24,-64.26,P59,3.408,P2,81.76,P6,147.1,P33
11089,C94,,66.7%,Min,-21.64,P3,-4.735,P3,31.89,P58,0.2520,P5,-147.1,P33,-3.312,P3,31.93,P58,64.27,P59
11089,C94,,75.0%,Max,16.67,P2,5.042,P2,84.78,P6,1.554,P24,-50.27,P81,3.606,P2,84.79,P6,114.5,P8
11089,C94,,75.0%,Min,-21.64,P3,-4.735,P3,34.13,P58,0.2520,P5,-114.5,P8,-3.631,P3,34.17,P58,50.27,P81
11089,C94,,83.3%,Max,16.67,P2,5.042,P2,87.80,P6,1.554,P24,-34.79,P81,3.803,P2,87.81,P6,80.96,P8
11089,C94,,83.3%,Min,-21.64,P3,-4.735,P3,36.37,P58,0.2520,P5,-80.96,P8,-3.951,P3,36.41,P58,34.79,P81
11089,C94,,91.7%,Max,16.67,P2,5.042,P2,90.83,P6,1.554,P24,-18.43,P81,4.001,P2,90.83,P6,46.17,P8
11089,C94,,91.7%,Min,-21.64,P3,-4.735,P3,38.61,P58,0.2520,P5,-46.17,P8,-4.270,P3,38.64,P58,18.45,P81
11089,C94,6066,100.0%,Max,16.67,P2,5.042,P2,93.85,P6,1.554,P24,-1.172,P81,4.199,P2,93.85,P6,10.20,P8
11089,C94,6066,100.0%,Min,-21.64,P3,-4.735,P3,40.85,P58,0.2520,P5,-10.18,P8,-4.590,P3,40.88,P58,2.014,P80
11090,C94,4837,0.0%,Max,365.9,P2,17.70,P4,-98.19,P79,3.750,P81,656.5,P8,19.58,P4,247.2,P24,656.6,P8
11090,C94,4837,0.0%,Min,-259.2,P3,-23.10,P5,-247.2,P24,-7.921,P58,222.7,P81,-25.21,P5,99.06,P79,223.3,P79
11090,C94,,12.5%,Max,365.9,P2,17.70,P4,-93.38,P79,3.750,P81,531.9,P8,20.20,P4,240.7,P24,531.9,P8
11090,C94,,12.5%,Min,-259.2,P3,-23.10,P5,-240.7,P24,-7.921,P58,173.6,P81,-23.07,P5,94.29,P79,173.9,P81
11090,C94,,25.0%,Max,365.9,P2,17.70,P4,-88.57,P79,3.750,P81,410.5,P8,20.82,P4,234.2,P24,410.5,P8
11090,C94,,25.0%,Min,-259.2,P3,-23.10,P5,-234.2,P24,-7.921,P58,127.0,P81,-20.94,P5,89.53,P79,127.0,P81
11090,C94,,37.5%,Max,365.9,P2,17.70,P4,-83.75,P79,3.750,P81,292.4,P8,21.44,P4,227.7,P24,292.4,P8
11090,C94,,37.5%,Min,-259.2,P3,-23.10,P5,-227.7,P24,-7.921,P58,81.94,P3,-18.80,P5,84.77,P79,83.12,P81
11090,C94,,50.0%,Max,365.9,P2,17.70,P4,-78.94,P79,3.750,P81,177.7,P8,22.06,P4,221.2,P24,177.7,P8
11090,C94,,50.0%,Min,-259.2,P3,-23.10,P5,-221.2,P24,-7.921,P58,37.45,P3,-16.66,P5,80.02,P79,40.33,P3
11090,C94,,50.0%,Max,369.6,P2,5.814,P2,8.834,P2,11.99,P6,160.9,P8,6.751,P2,42.00,P3,160.9,P8
11090,C94,,50.0%,Min,-257.3,P3,-10.66,P3,-40.62,P3,3.356,P5,35.92,P3,-11.35,P3,3.610,P79,37.67,P3
11090,C94,,62.5%,Max,369.6,P2,5.814,P2,13.65,P2,11.99,P6,145.1,P8,7.704,P2,37.36,P3,145.1,P8
11090,C94,,62.5%,Min,-257.3,P3,-10.66,P3,-35.81,P3,3.356,P5,33.43,P3,-9.830,P3,2.049,P55,34.85,P3
11090,C94,,75.0%,Max,369.6,P2,5.814,P2,18.46,P2,11.99,P6,132.7,P8,8.658,P2,32.78,P3,132.7,P8
11090,C94,,75.0%,Min,-257.3,P3,-10.66,P3,-31.00,P3,3.356,P5,33.40,P3,-8.308,P3,1.015,P43,34.42,P3
11090,C94,,87.5%,Max,369.6,P2,5.814,P2,23.27,P2,11.99,P6,123.7,P8,9.611,P2,28.27,P3,123.7,P8
11090,C94,,87.5%,Min,-257.3,P3,-10.66,P3,-26.18,P3,3.356,P5,35.74,P5,-6.786,P3,0.4788,P67,36.03,P5
11090,C94,6164,100.0%,Max,369.6,P2,5.814,P2,28.09,P2,11.99,P6,119.3,P27,10.56,P2,28.68,P2,119.3,P27
11090,C94,6164,100.0%,Min,-257.3,P3,-10.66,P3,-21.37,P3,3.356,P5,36.93,P5,-5.263,P3,0.8593,P63,37.08,P5
11115,C94,7152,0.0%,Max,186.0,P4,4.109,P4,70.43,P10,-0.1264,P2,-51.27,P2,2.287,P4,70.45,P10,104.3,P10
11115,C94,7152,0.0%,Min,-152.8,P5,-6.649,P5,28.28,P3,-0.6633,P3,-104.3,P10,-3.906,P5,28.78,P3,51.29,P2
11115,C94,,12.5%,Max,186.0,P4,4.109,P4,72.01,P10,-0.1264,P2,-41.36,P2,2.582,P4,72.04,P10,84.86,P22
11115,C94,,12.5%,Min,-152.8,P5,-6.649,P5,29.46,P3,-0.6633,P3,-84.85,P22,-3.497,P5,29.93,P3,41.40,P2
11115,C94,,25.0%,Max,186.0,P4,4.109,P4,73.59,P10,-0.1264,P2,-31.10,P4,2.877,P4,73.62,P10,65.31,P22
11115,C94,,25.0%,Min,-152.8,P5,-6.649,P5,30.63,P3,-0.6633,P3,-65.31,P22,-3.088,P5,31.09,P3,31.20,P2
11115,C94,,37.5%,Max,186.0,P4,4.109,P4,75.18,P10,-0.1264,P2,-20.30,P4,3.172,P4,75.21,P10,45.87,P6
11115,C94,,37.5%,Min,-152.8,P5,-6.649,P5,31.80,P3,-0.6633,P3,-45.87,P6,-2.679,P5,32.25,P3,20.54,P4
11115,C94,,50.0%,Max,186.0,P4,4.109,P4,76.76,P10,-0.1264,P2,-9.172,P4,3.467,P4,76.79,P10,28.07,P33
11115,C94,,50.0%,Min,-152.8,P5,-6.649,P5,32.98,P3,-0.6633,P3,-28.04,P33,-2.271,P5,33.41,P3,9.805,P4
11115,C94,,50.0%,Max,174.8,P4,10.67,P4,116.1,P22,0.7439,P2,-0.5412,P4,5.083,P4,116.1,P22,18.55,P21
11115,C94,,50.0%,Min,-136.6,P5,-13.20,P5,51.34,P69,0.02767,P3,-18.45,P21,-6.456,P5,51.43,P69,3.213,P60
11115,C94,,62.5%,Max,174.8,P4,10.67,P4,117.7,P22,0.7439,P2,23.02,P4,5.855,P4,117.7,P22,23.75,P4
11115,C94,,62.5%,Min,-136.6,P5,-13.20,P5,52.52,P69,0.02767,P3,0.5231,P5,-6.528,P5,52.61,P69,2.979,P69
11115,C94,,75.0%,Max,174.8,P4,10.67,P4,119.3,P22,0.7439,P2,53.10,P10,6.628,P4,119.3,P22,53.10,P10
11115,C94,,75.0%,Min,-136.6,P5,-13.20,P5,53.69,P69,0.02767,P3,15.97,P5,-6.600,P5,53.78,P69,17.28,P5
11115,C94,,87.5%,Max,174.8,P4,10.67,P4,120.9,P22,0.7439,P2,85.75,P10,7.400,P4,120.9,P22,85.75,P10
11115,C94,,87.5%,Min,-136.6,P5,-13.20,P5,54.86,P69,0.02767,P3,31.74,P5,-6.673,P5,54.95,P69,32.43,P5
11115,C94,4888,100.0%,Max,174.8,P4,10.67,P4,122.5,P22,0.7439,P2,119.2,P22,8.173,P4,122.5,P22,119.2,P22
11115,C94,4888,100.0%,Min,-136.6,P5,-13.20,P5,56.04,P69,0.02767,P3,47.83,P5,-6.745,P5,56.12,P69,48.07,P69
11116,C94,5107,0.0%,Max,192.3,P4,4.276,P4,-9.101,P4,3.717,P33,22.15,P2,2.976,P4,31.13,P5,22.23,P2
11116,C94,5107,0.0%,Min,-166.4,P5,-4.465,P5,-30.81,P5,1.630,P3,-10.77,P3,-3.280,P5,9.953,P2,0.5343,P18
11116,C94,,12.5%,Max,192.3,P4,4.276,P4,-7.927,P4,3.717,P33,15.30,P2,2.650,P4,29.97,P5,16.67,P8
11116,C94,,12.5%,Min,-166.4,P5,-4.465,P5,-29.64,P5,1.630,P3,-16.67,P8,-2.901,P5,8.829,P2,0.1869,P36
11116,C94,,25.0%,Max,192.3,P4,4.276,P4,-6.754,P4,3.717,P33,9.324,P4,2.324,P4,28.81,P5,22.22,P8
11116,C94,,25.0%,Min,-166.4,P5,-4.465,P5,-28.46,P5,1.630,P3,-22.22,P8,-2.523,P5,7.720,P2,0.2322,P51
11116,C94,,37.5%,Max,192.3,P4,4.276,P4,-5.580,P4,3.717,P33,4.360,P4,1.997,P4,27.65,P5,27.34,P8
11116,C94,,37.5%,Min,-166.4,P5,-4.465,P5,-27.29,P5,1.630,P3,-27.34,P8,-2.144,P5,6.634,P2,0.06045,P56
11116,C94,,50.0%,Max,192.3,P4,4.276,P4,-4.406,P4,3.717,P33,-0.2784,P4,1.671,P4,26.49,P5,32.35,P22
11116,C94,,50.0%,Min,-166.4,P5,-4.465,P5,-26.12,P5,1.630,P3,-32.35,P22,-1.766,P5,5.583,P2,1.694,P4
11116,C94,,50.0%,Max,191.1,P4,5.227,P4,-19.56,P2,0.5311,P4,-3.753,P4,3.030,P4,43.25,P21,35.85,P22
11116,C94,,50.0%,Min,-160.8,P5,-4.721,P5,-43.25,P21,-1.252,P5,-35.85,P22,-3.075,P5,19.96,P2,4.823,P4
11116,C94,,62.5%,Max,191.1,P4,5.227,P4,-18.38,P2,0.5311,P4,-11.54,P4,2.812,P4,41.66,P21,45.74,P22
11116,C94,,62.5%,Min,-160.8,P5,-4.721,P5,-41.66,P21,-1.252,P5,-45.74,P22,-2.998,P5,18.81,P2,11.87,P4
11116,C94,,75.0%,Max,191.1,P4,5.227,P4,-17.21,P2,0.5311,P4,-19.00,P4,2.595,P4,40.08,P21,55.20,P22
11116,C94,,75.0%,Min,-160.8,P5,-4.721,P5,-40.08,P21,-1.252,P5,-55.20,P22,-2.921,P5,17.67,P2,19.17,P4
11116,C94,,87.5%,Max,191.1,P4,5.227,P4,-16.03,P2,0.5311,P4,-26.13,P4,2.378,P4,38.49,P21,64.21,P22
11116,C94,,87.5%,Min,-160.8,P5,-4.721,P5,-38.49,P21,-1.252,P5,-64.21,P22,-2.844,P5,16.52,P2,26.24,P4
11116,C94,7152,100.0%,Max,191.1,P4,5.227,P4,-14.86,P2,0.5311,P4,-32.94,P4,2.160,P4,36.91,P21,72.79,P22
11116,C94,7152,100.0%,Min,-160.8,P5,-4.721,P5,-36.91,P21,-1.252,P5,-72.78,P22,-2.767,P5,15.39,P2,33.01,P4
11117,C94,7141,0.0%,Max,192.7,P4,4.262,P4,45.95,P4,1.218,P4,-4.804,P4,1.916,P4,46.15,P4,76.00,P5
11117,C94,7141,0.0%,Min,-162.5,P5,-5.172,P5,4.025,P5,-0.3602,P5,-75.95,P5,-2.734,P5,6.449,P3,5.172,P4
11117,C94,,12.5%,Max,192.7,P4,4.262,P4,47.13,P4,1.218,P4,-2.615,P4,2.187,P4,47.32,P4,64.03,P5
11117,C94,,12.5%,Min,-162.5,P5,-5.172,P5,5.198,P5,-0.3602,P5,-63.97,P5,-2.754,P5,7.333,P5,3.409,P4
11117,C94,,25.0%,Max,192.7,P4,4.262,P4,48.30,P4,1.218,P4,-0.1000,P4,2.459,P4,48.49,P4,51.73,P5
11117,C94,,25.0%,Min,-162.5,P5,-5.172,P5,6.372,P5,-0.3602,P5,-51.66,P5,-2.773,P5,8.207,P5,2.461,P4
11117,C94,,37.5%,Max,192.7,P4,4.262,P4,49.47,P4,1.218,P4,2.740,P4,2.731,P4,49.66,P4,39.13,P5
11117,C94,,37.5%,Min,-162.5,P5,-5.172,P5,7.546,P5,-0.3602,P5,-39.03,P5,-2.793,P5,9.148,P5,2.509,P2
11117,C94,,50.0%,Max,192.7,P4,4.262,P4,50.65,P4,1.218,P4,5.905,P4,3.002,P4,50.83,P4,26.22,P5
11117,C94,,50.0%,Min,-162.5,P5,-5.172,P5,8.719,P5,-0.3602,P5,-26.07,P5,-2.813,P5,10.14,P5,2.974,P2
11117,C94,,50.0%,Max,194.2,P4,4.149,P4,36.96,P4,-1.784,P4,7.504,P4,1.534,P4,37.19,P4,20.92,P5
11117,C94,,50.0%,Min,-167.7,P5,-4.216,P5,-6.939,P5,-3.895,P6,-20.84,P5,-1.747,P5,5.884,P84,1.396,P81
11117,C94,,62.5%,Max,194.2,P4,4.149,P4,38.13,P4,-1.784,P4,12.83,P4,1.882,P4,38.36,P4,17.65,P5
11117,C94,,62.5%,Min,-167.7,P5,-4.216,P5,-5.765,P5,-3.895,P6,-17.53,P5,-2.077,P5,5.000,P3,0.1017,P48
11117,C94,,75.0%,Max,194.2,P4,4.149,P4,39.30,P4,-1.784,P4,18.48,P4,2.231,P4,39.52,P4,18.61,P4
11117,C94,,75.0%,Min,-167.7,P5,-4.216,P5,-4.591,P5,-3.895,P6,-13.89,P5,-2.407,P5,4.073,P3,0.5016,P36
11117,C94,,87.5%,Max,194.2,P4,4.149,P4,40.48,P4,-1.784,P4,24.46,P4,2.580,P4,40.69,P4,24.59,P4
11117,C94,,87.5%,Min,-167.7,P5,-4.216,P5,-3.418,P5,-3.895,P6,-9.920,P5,-2.737,P5,3.306,P3,0.3335,P83
11117,C94,5097,100.0%,Max,194.2,P4,4.149,P4,41.65,P4,-1.784,P4,30.84,P2,2.929,P4,41.86,P4,30.90,P2
11117,C94,5097,100.0%,Min,-167.7,P5,-4.216,P5,-2.244,P5,-3.895,P6,-5.712,P3,-3.068,P5,2.833,P3,0.6552,P13
11118,C94,4893,0.0%,Max,174.8,P4,13.22,P4,-8.881,P4,0.7509,P24,54.36,P4,8.278,P4,72.25,P5,54.99,P4
11118,C94,4893,0.0%,Min,-136.1,P5,-10.86,P5,-71.43,P5,-0.1952,P5,-26.28,P5,-6.903,P5,15.92,P4,2.971,P60
11118,C94,,12.5%,Max,174.8,P4,13.22,P4,-7.708,P4,0.7509,P24,35.27,P4,7.492,P4,71.09,P5,36.06,P4
11118,C94,,12.5%,Min,-136.1,P5,-10.86,P5,-70.25,P5,-0.1952,P5,-29.11,P5,-6.770,P5,15.30,P4,0.4881,P9
11118,C94,,25.0%,Max,174.8,P4,13.22,P4,-6.534,P4,0.7509,P24,16.50,P4,6.705,P4,69.93,P5,32.30,P5
11118,C94,,25.0%,Min,-136.1,P5,-10.86,P5,-69.08,P5,-0.1952,P5,-31.62,P5,-6.638,P5,14.74,P4,2.755,P55
11118,C94,,37.5%,Max,174.8,P4,13.22,P4,-5.360,P4,0.7509,P24,-1.942,P4,5.919,P4,68.77,P5,34.42,P5
11118,C94,,37.5%,Min,-136.1,P5,-10.86,P5,-67.91,P5,-0.1952,P5,-33.80,P5,-6.505,P5,14.26,P4,6.230,P4
11118,C94,,50.0%,Max,174.8,P4,13.22,P4,-4.186,P4,0.7509,P24,-20.06,P4,5.133,P4,67.61,P5,47.39,P6
11118,C94,,50.0%,Min,-136.1,P5,-10.86,P5,-66.73,P5,-0.1952,P5,-47.38,P6,-6.372,P5,13.58,P2,20.71,P4
11118,C94,,50.0%,Max,188.6,P4,6.378,P4,16.66,P4,0.8447,P11,-23.71,P84,3.344,P4,46.24,P5,52.24,P6
11118,C94,,50.0%,Min,-151.7,P5,-4.192,P5,-46.05,P5,0.2730,P3,-52.23,P6,-2.310,P5,4.340,P60,23.72,P84
11118,C94,,62.5%,Max,188.6,P4,6.378,P4,17.84,P4,0.8447,P11,-21.99,P4,3.093,P4,45.07,P5,57.24,P7
11118,C94,,62.5%,Min,-151.7,P5,-4.192,P5,-44.88,P5,0.2730,P3,-57.24,P7,-2.665,P5,3.283,P60,22.21,P4
11118,C94,,75.0%,Max,188.6,P4,6.378,P4,19.01,P4,0.8447,P11,-18.62,P4,2.842,P4,43.91,P5,62.85,P7
11118,C94,,75.0%,Min,-151.7,P5,-4.192,P5,-43.71,P5,0.2730,P3,-62.85,P7,-3.019,P5,2.339,P60,18.83,P4
11118,C94,,87.5%,Max,188.6,P4,6.378,P4,20.19,P4,0.8447,P11,-14.91,P4,2.591,P4,42.74,P5,68.66,P5
11118,C94,,87.5%,Min,-151.7,P5,-4.192,P5,-42.53,P5,0.2730,P3,-68.58,P5,-3.374,P5,1.667,P84,15.14,P4
11118,C94,7141,100.0%,Max,188.6,P4,6.378,P4,21.36,P4,0.8447,P11,-10.88,P4,2.340,P4,41.57,P5,78.56,P5
11118,C94,7141,100.0%,Min,-151.7,P5,-4.192,P5,-41.36,P5,0.2730,P3,-78.47,P5,-3.728,P5,1.455,P85,11.13,P4
11124,C94,4779,0.0%,Max,81.89,P4,35.45,P2,10.47,P4,-2.071,P2,443.5,P10,31.48,P2,183.4,P10,443.7,P10
11124,C94,4779,0.0%,Min,-94.90,P5,-6.756,P3,-183.0,P10,-9.888,P16,-127.0,P5,-9.611,P3,25.56,P81,1.568,P81
11124,C94,,12.5%,Max,81.89,P4,35.45,P2,14.28,P4,-2.071,P2,371.0,P4,24.22,P2,178.2,P10,371.4,P4
11124,C94,,12.5%,Min,-94.90,P5,-6.756,P3,-177.8,P10,-9.888,P16,-122.0,P5,-13.96,P3,21.79,P81,2.167,P80
11124,C94,,25.0%,Max,81.89,P4,35.45,P2,18.09,P4,-2.071,P2,308.7,P4,16.96,P2,173.1,P10,308.9,P4
11124,C94,,25.0%,Min,-94.90,P5,-6.756,P3,-172.7,P10,-9.888,P16,-115.5,P5,-18.30,P3,18.02,P81,5.965,P56
11124,C94,,37.5%,Max,81.89,P4,35.45,P2,21.90,P4,-2.071,P2,247.9,P4,9.695,P2,168.0,P10,248.0,P4
11124,C94,,37.5%,Min,-94.90,P5,-6.756,P3,-167.5,P10,-9.888,P16,-107.4,P5,-22.65,P3,14.29,P81,5.744,P56
11124,C94,,50.0%,Max,81.89,P4,35.45,P2,25.71,P4,-2.071,P2,188.7,P4,4.204,P55,162.9,P10,188.7,P4
11124,C94,,50.0%,Min,-94.90,P5,-6.756,P3,-162.4,P10,-9.888,P16,-97.83,P5,-27.00,P3,10.60,P81,7.811,P45
11124,C94,,50.0%,Max,62.34,P4,19.00,P2,47.17,P4,-2.725,P2,173.8,P4,11.27,P2,115.1,P5,174.0,P4
11124,C94,,50.0%,Min,-90.70,P5,-13.31,P3,-114.9,P5,-6.681,P24,-94.44,P5,-8.675,P3,5.088,P56,4.369,P45
11124,C94,,62.5%,Max,62.34,P4,19.00,P2,50.98,P4,-2.725,P2,128.4,P4,11.71,P2,111.3,P5,128.6,P4
11124,C94,,62.5%,Min,-90.70,P5,-13.31,P3,-111.1,P5,-6.681,P24,-74.81,P5,-11.42,P3,6.460,P56,1.920,P45
11124,C94,,75.0%,Max,62.34,P4,19.00,P2,54.79,P4,-2.725,P2,84.41,P4,12.14,P2,107.5,P5,84.71,P4
11124,C94,,75.0%,Min,-90.70,P5,-13.31,P3,-107.3,P5,-6.681,P24,-53.64,P5,-14.16,P3,7.051,P45,1.021,P79
11124,C94,,87.5%,Max,62.34,P4,19.00,P2,58.60,P4,-2.725,P2,42.00,P4,12.58,P2,103.7,P5,42.63,P4
11124,C94,,87.5%,Min,-90.70,P5,-13.31,P3,-103.5,P5,-6.681,P24,-30.93,P5,-16.90,P3,3.998,P79,0.7262,P76
11124,C94,7115,100.0%,Max,62.34,P4,19.00,P2,62.41,P4,-2.725,P2,1.629,P58,13.02,P2,99.91,P5,20.37,P3
11124,C94,7115,100.0%,Min,-90.70,P5,-13.31,P3,-99.66,P5,-6.681,P24,-7.151,P6,-19.64,P3,0.2503,P79,0.5685,P39
11125,C94,7163,0.0%,Max,66.24,P4,2.106,P4,84.35,P33,-1.558,P4,-6.163,P58,2.434,P4,84.35,P33,22.53,P6
11125,C94,7163,0.0%,Min,-28.63,P5,-0.7327,P5,21.10,P58,-6.170,P30,-22.50,P6,-1.305,P5,21.11,P58,6.257,P58
11125,C94,,8.3%,Max,66.24,P4,2.106,P4,88.39,P33,-1.558,P4,10.26,P4,1.934,P4,88.40,P33,10.44,P4
11125,C94,,8.3%,Min,-28.63,P5,-0.7327,P5,24.10,P58,-6.170,P30,-3.136,P5,-1.243,P5,24.10,P58,0.8686,P60
11125,C94,,16.7%,Max,66.24,P4,2.106,P4,92.44,P33,-1.558,P4,33.97,P33,1.607,P2,92.44,P33,33.97,P33
11125,C94,,16.7%,Min,-28.63,P5,-0.7327,P5,27.09,P58,-6.170,P30,7.301,P5,-1.353,P3,27.10,P58,7.396,P5
11125,C94,,25.0%,Max,66.24,P4,2.106,P4,96.49,P33,-1.558,P4,64.05,P33,1.414,P2,96.49,P33,64.05,P33
11125,C94,,25.0%,Min,-28.63,P5,-0.7327,P5,30.09,P58,-6.170,P30,18.29,P58,-1.597,P3,30.10,P58,18.29,P58
11125,C94,,33.3%,Max,66.24,P4,2.106,P4,100.5,P33,-1.558,P4,95.42,P33,1.222,P2,100.5,P33,95.42,P33
11125,C94,,33.3%,Min,-28.63,P5,-0.7327,P5,33.09,P58,-6.170,P30,28.34,P58,-1.842,P3,33.09,P58,28.34,P58
11125,C94,,33.3%,Max,96.33,P4,7.828,P4,173.1,P33,0.08220,P4,101.9,P33,4.905,P4,173.2,P33,101.9,P33
11125,C94,,33.3%,Min,-66.83,P5,-3.464,P5,60.63,P58,-2.454,P19,30.16,P58,-3.186,P5,60.66,P58,30.19,P58
11125,C94,,41.7%,Max,96.33,P4,7.828,P4,177.2,P33,0.08220,P4,157.7,P33,4.058,P4,177.2,P33,157.7,P33
11125,C94,,41.7%,Min,-66.83,P5,-3.464,P5,63.63,P58,-2.454,P19,49.95,P58,-3.728,P5,63.66,P58,49.95,P58
11125,C94,,50.0%,Max,96.33,P4,7.828,P4,181.2,P33,0.08220,P4,214.7,P33,3.211,P4,181.2,P33,214.7,P33
11125,C94,,50.0%,Min,-66.83,P5,-3.464,P5,66.63,P58,-2.454,P19,70.69,P58,-4.271,P5,66.65,P58,70.69,P58
11125,C94,,58.3%,Max,96.33,P4,7.828,P4,185.3,P33,0.08220,P4,273.1,P33,2.364,P4,185.3,P33,273.1,P33
11125,C94,,58.3%,Min,-66.83,P5,-3.464,P5,69.63,P58,-2.454,P19,92.38,P58,-4.814,P5,69.65,P58,92.38,P58
11125,C94,,66.7%,Max,96.33,P4,7.828,P4,189.3,P33,0.08220,P4,332.7,P33,1.517,P4,189.3,P33,332.7,P33
11125,C94,,66.7%,Min,-66.83,P5,-3.464,P5,72.62,P58,-2.454,P19,115.0,P58,-5.356,P5,72.65,P58,115.0,P58
11125,C94,,66.7%,Max,147.7,P4,19.07,P2,259.1,P33,2.174,P4,349.6,P33,8.301,P2,260.3,P33,349.8,P33
11125,C94,,66.7%,Min,-132.7,P5,-53.55,P3,97.63,P58,-2.818,P5,121.2,P58,-26.54,P3,97.94,P58,121.2,P58
11125,C94,,75.0%,Max,147.7,P4,19.07,P2,263.1,P33,2.174,P4,432.7,P33,16.70,P2,264.3,P33,432.8,P33
11125,C94,,75.0%,Min,-132.7,P5,-53.55,P3,100.6,P58,-2.818,P5,152.8,P58,-23.96,P3,100.9,P58,152.8,P58
11125,C94,,83.3%,Max,147.7,P4,19.07,P2,267.2,P33,2.174,P4,517.2,P33,25.10,P2,268.3,P33,517.2,P33
11125,C94,,83.3%,Min,-132.7,P5,-53.55,P3,103.6,P58,-2.818,P5,185.3,P58,-21.38,P3,103.9,P58,185.3,P58
11125,C94,,91.7%,Max,147.7,P4,19.07,P2,271.2,P33,2.174,P4,602.9,P33,34.34,P4,272.3,P33,603.0,P33
11125,C94,,91.7%,Min,-132.7,P5,-53.55,P3,106.6,P58,-2.818,P5,218.7,P58,-19.64,P5,106.9,P58,218.8,P58
11125,C94,4779,100.0%,Max,147.7,P4,19.07,P2,275.2,P33,2.174,P4,689.9,P33,44.19,P4,276.4,P33,690.1,P33
11125,C94,4779,100.0%,Min,-132.7,P5,-53.55,P3,109.6,P58,-2.818,P5,253.2,P58,-18.52,P5,109.9,P58,253.3,P58
11130,C94,5220,0.0%,Max,131.9,P4,1.196,P4,-5.871,P4,1.486,P24,30.44,P33,1.053,P4,13.66,P21,30.44,P33
11130,C94,5220,0.0%,Min,-173.2,P5,-0.8745,P5,-13.66,P21,0.5594,P57,11.14,P5,-0.6596,P5,5.992,P4,11.16,P5
11130,C94,,12.5%,Max,131.9,P4,1.196,P4,-4.120,P4,1.486,P24,25.37,P8,0.9875,P4,11.30,P21,25.37,P8
11130,C94,,12.5%,Min,-173.2,P5,-0.8745,P5,-11.29,P21,0.5594,P57,8.678,P5,-0.7271,P5,4.291,P4,8.709,P5
11130,C94,,25.0%,Max,131.9,P4,1.196,P4,-2.370,P4,1.486,P24,21.53,P8,0.9221,P4,9.530,P5,21.53,P8
11130,C94,,25.0%,Min,-173.2,P5,-0.8745,P5,-9.490,P5,0.5594,P57,6.943,P5,-0.7947,P5,2.655,P4,6.988,P5
11130,C94,,37.5%,Max,131.9,P4,1.196,P4,-0.6198,P4,1.486,P24,18.68,P24,0.8567,P4,7.789,P5,18.68,P24
11130,C94,,37.5%,Min,-173.2,P5,-0.8745,P5,-7.739,P5,0.5594,P57,5.931,P5,-0.8623,P5,1.347,P4,5.993,P5
11130,C94,,50.0%,Max,131.9,P4,1.196,P4,1.131,P4,1.486,P24,16.94,P24,0.7913,P4,6.053,P5,16.94,P24
11130,C94,,50.0%,Min,-173.2,P5,-0.8745,P5,-5.989,P5,0.5594,P57,5.642,P5,-0.9299,P5,0.9219,P60,5.718,P5
11130,C94,,50.0%,Max,125.4,P4,0.6323,P4,8.481,P24,-0.3791,P56,17.15,P24,0.5361,P4,8.482,P24,17.15,P24
11130,C94,,50.0%,Min,-157.9,P5,-0.4835,P5,-0.7527,P5,-1.096,P24,5.441,P5,-0.4403,P5,0.3712,P3,5.459,P5
11130,C94,,62.5%,Max,125.4,P4,0.6323,P4,10.84,P24,-0.3791,P56,21.15,P24,0.5493,P4,10.84,P24,21.15,P24
11130,C94,,62.5%,Min,-157.9,P5,-0.4835,P5,0.9976,P5,-1.096,P24,5.720,P5,-0.5150,P5,1.109,P5,5.743,P5
11130,C94,,75.0%,Max,125.4,P4,0.6323,P4,13.21,P24,-0.3791,P56,26.12,P24,0.5625,P4,13.21,P24,26.12,P24
11130,C94,,75.0%,Min,-157.9,P5,-0.4835,P5,2.748,P5,-1.096,P24,6.722,P5,-0.5898,P5,2.790,P5,6.748,P5
11130,C94,,87.5%,Max,125.4,P4,0.6323,P4,15.57,P24,-0.3791,P56,32.06,P24,0.5757,P4,15.57,P24,32.06,P24
11130,C94,,87.5%,Min,-157.9,P5,-0.4835,P5,4.498,P5,-1.096,P24,8.448,P5,-0.6645,P5,4.524,P5,8.474,P5
11130,C94,7142,100.0%,Max,125.4,P4,0.6323,P4,17.93,P24,-0.3791,P56,38.98,P24,0.5890,P4,17.93,P24,38.98,P24
11130,C94,7142,100.0%,Min,-157.9,P5,-0.4835,P5,6.249,P5,-1.096,P24,10.90,P5,-0.7392,P5,6.267,P5,10.92,P5
11131,C94,7142,0.0%,Max,123.1,P4,0.5094,P4,-7.143,P4,0.2323,P24,39.36,P24,0.6062,P4,19.39,P24,39.36,P24
11131,C94,7142,0.0%,Min,-155.3,P5,-0.6764,P5,-19.39,P24,-0.04152,P3,11.08,P5,-0.7603,P5,7.161,P4,11.11,P5
11131,C94,,12.5%,Max,123.1,P4,0.5094,P4,-5.397,P4,0.2323,P24,31.85,P24,0.5963,P4,17.03,P24,31.85,P24
11131,C94,,12.5%,Min,-155.3,P5,-0.6764,P5,-17.03,P24,-0.04152,P3,8.340,P5,-0.6816,P5,5.421,P4,8.368,P5
11131,C94,,25.0%,Max,123.1,P4,0.5094,P4,-3.651,P4,0.2323,P24,25.32,P24,0.5865,P4,14.68,P24,25.32,P24
11131,C94,,25.0%,Min,-155.3,P5,-0.6764,P5,-14.68,P24,-0.04152,P3,6.321,P5,-0.6029,P5,3.686,P4,6.349,P5
11131,C94,,37.5%,Max,123.1,P4,0.5094,P4,-1.904,P4,0.2323,P24,19.75,P24,0.5767,P4,12.32,P24,19.75,P24
11131,C94,,37.5%,Min,-155.3,P5,-0.6764,P5,-12.32,P24,-0.04152,P3,5.021,P5,-0.5242,P5,1.971,P4,5.048,P5
11131,C94,,50.0%,Max,123.1,P4,0.5094,P4,-0.1581,P4,0.2323,P24,15.16,P24,0.5668,P4,9.961,P24,15.16,P24
11131,C94,,50.0%,Min,-155.3,P5,-0.6764,P5,-9.961,P24,-0.04152,P3,4.441,P5,-0.4455,P5,0.5333,P4,4.464,P5
11131,C94,,50.0%,Max,125.3,P4,0.5677,P4,3.812,P4,-0.2191,P2,14.99,P24,0.5885,P4,3.854,P4,14.99,P24
11131,C94,,50.0%,Min,-164.0,P5,-0.7661,P5,-3.378,P5,-0.6587,P24,4.700,P5,-0.6431,P5,0.04461,P90,4.744,P5
11131,C94,,62.5%,Max,125.3,P4,0.5677,P4,5.558,P4,-0.2191,P2,15.07,P24,0.5987,P4,5.587,P4,15.07,P24
11131,C94,,62.5%,Min,-164.0,P5,-0.7661,P5,-1.632,P5,-0.6587,P24,4.147,P5,-0.5716,P5,0.6182,P60,4.186,P5
11131,C94,,75.0%,Max,125.3,P4,0.5677,P4,7.304,P4,-0.2191,P2,16.27,P8,0.6090,P4,7.327,P4,16.27,P8
11131,C94,,75.0%,Min,-164.0,P5,-0.7661,P5,0.1141,P5,-0.6587,P24,4.313,P5,-0.5001,P5,0.7745,P5,4.342,P5
11131,C94,,87.5%,Max,125.3,P4,0.5677,P4,9.051,P4,-0.2191,P2,18.56,P33,0.6193,P4,9.069,P4,18.56,P33
11131,C94,,87.5%,Min,-164.0,P5,-0.7661,P5,1.860,P5,-0.6587,P24,5.199,P5,-0.4286,P5,2.012,P5,5.217,P5
11131,C94,5218,100.0%,Max,125.3,P4,0.5677,P4,10.80,P4,-0.2191,P2,22.09,P33,0.6681,P2,10.81,P4,22.09,P33
11131,C94,5218,100.0%,Min,-164.0,P5,-0.7661,P5,3.607,P5,-0.6587,P24,6.805,P5,-0.3956,P3,3.687,P5,6.815,P5
11136,C94,7133,0.0%,Max,39.83,P2,1.454,P2,190.3,P24,-0.2843,P2,-18.31,P2,1.444,P2,190.3,P24,46.83,P24
11136,C94,7133,0.0%,Min,-29.13,P3,-1.591,P3,72.49,P3,-4.362,P6,-46.83,P24,-1.897,P3,72.51,P3,18.37,P2
11136,C94,,8.3%,Max,39.83,P2,1.454,P2,194.6,P24,-0.2843,P2,22.78,P2,1.322,P2,194.6,P24,22.82,P2
11136,C94,,8.3%,Min,-29.13,P3,-1.591,P3,75.65,P3,-4.362,P6,-1.418,P3,-1.729,P3,75.66,P3,2.236,P3
11136,C94,,16.7%,Max,39.83,P2,1.454,P2,198.9,P24,-0.2843,P2,83.50,P24,1.201,P2,198.9,P24,83.50,P24
11136,C94,,16.7%,Min,-29.13,P3,-1.591,P3,78.80,P3,-4.362,P6,27.03,P3,-1.562,P3,78.82,P3,27.07,P3
11136,C94,,25.0%,Max,39.83,P2,1.454,P2,203.1,P24,-0.2843,P2,150.8,P24,1.079,P2,203.1,P24,150.8,P24
11136,C94,,25.0%,Min,-29.13,P3,-1.591,P3,81.95,P3,-4.362,P6,56.52,P3,-1.395,P3,81.97,P3,56.54,P3
11136,C94,,33.3%,Max,39.83,P2,1.454,P2,207.4,P24,-0.2843,P2,219.5,P24,0.9837,P4,207.4,P24,219.5,P24
11136,C94,,33.3%,Min,-29.13,P3,-1.591,P3,85.11,P3,-4.362,P6,87.08,P3,-1.253,P5,85.12,P3,87.09,P3
11136,C94,,33.3%,Max,50.44,P2,7.631,P4,265.6,P24,-1.394,P2,243.5,P24,5.846,P4,265.7,P24,243.5,P24
11136,C94,,33.3%,Min,-37.01,P3,-9.726,P5,106.4,P3,-6.643,P6,96.75,P3,-7.346,P5,106.7,P3,96.89,P3
11136,C94,,41.7%,Max,50.44,P2,7.631,P4,269.9,P24,-1.394,P2,333.2,P24,5.810,P4,269.9,P24,333.2,P24
11136,C94,,41.7%,Min,-37.01,P3,-9.726,P5,109.6,P3,-6.643,P6,132.9,P3,-6.609,P5,109.8,P3,133.0,P3
11136,C94,,50.0%,Max,50.44,P2,7.631,P4,274.2,P24,-1.394,P2,424.3,P24,5.774,P4,274.2,P24,424.3,P24
11136,C94,,50.0%,Min,-37.01,P3,-9.726,P5,112.8,P3,-6.643,P6,170.2,P3,-5.872,P5,113.0,P3,170.2,P3
11136,C94,,58.3%,Max,50.44,P2,7.631,P4,278.4,P24,-1.394,P2,516.8,P24,5.738,P4,278.4,P24,516.8,P24
11136,C94,,58.3%,Min,-37.01,P3,-9.726,P5,115.9,P3,-6.643,P6,208.5,P3,-5.134,P5,116.1,P3,208.5,P3
11136,C94,,66.7%,Max,50.44,P2,7.631,P4,282.7,P24,-1.394,P2,610.8,P24,5.702,P4,282.7,P24,610.8,P24
11136,C94,,66.7%,Min,-37.01,P3,-9.726,P5,119.1,P3,-6.643,P6,247.8,P3,-4.397,P5,119.3,P3,247.8,P3
11136,C94,,66.7%,Max,69.11,P4,35.00,P4,405.2,P24,18.02,P24,653.2,P24,17.87,P4,405.2,P24,653.2,P24
11136,C94,,66.7%,Min,-55.00,P5,-38.07,P5,169.8,P3,5.849,P3,265.3,P3,-20.08,P5,171.9,P3,265.6,P3
11136,C94,,75.0%,Max,69.11,P4,35.00,P4,409.4,P24,18.02,P24,789.6,P24,21.13,P4,409.4,P24,789.6,P24
11136,C94,,75.0%,Min,-55.00,P5,-38.07,P5,173.0,P3,5.849,P3,322.7,P3,-22.32,P5,175.0,P3,323.0,P3
11136,C94,,83.3%,Max,69.11,P4,35.00,P4,413.7,P24,18.02,P24,927.4,P24,24.39,P4,413.7,P24,927.4,P24
11136,C94,,83.3%,Min,-55.00,P5,-38.07,P5,176.1,P3,5.849,P3,381.1,P3,-24.55,P5,178.1,P3,381.5,P3
11136,C94,,91.7%,Max,69.11,P4,35.00,P4,417.9,P24,18.02,P24,1067.,P24,27.66,P4,417.9,P24,1067.,P24
11136,C94,,91.7%,Min,-55.00,P5,-38.07,P5,179.3,P3,5.849,P3,440.7,P3,-26.79,P5,181.2,P3,441.0,P3
11136,C94,4991,100.0%,Max,69.11,P4,35.00,P4,422.2,P24,18.02,P24,1207.,P24,30.92,P4,422.2,P24,1207.,P24
11136,C94,4991,100.0%,Min,-55.00,P5,-38.07,P5,182.4,P3,5.849,P3,501.2,P3,-29.02,P5,184.4,P3,501.6,P3
11137,C94,4991,0.0%,Max,180.4,P4,41.37,P4,-39.47,P4,3.905,P4,311.0,P31,42.94,P4,157.5,P31,311.0,P31
11137,C94,4991,0.0%,Min,-138.6,P5,-44.67,P5,-157.5,P31,0.1804,P5,53.75,P5,-46.13,P5,56.31,P2,70.83,P5
11137,C94,,25.0%,Max,180.4,P4,41.37,P4,-35.03,P4,3.905,P4,238.2,P31,41.71,P4,151.5,P31,238.2,P31
11137,C94,,25.0%,Min,-138.6,P5,-44.67,P5,-151.5,P31,0.1804,P5,36.19,P5,-43.35,P5,52.17,P2,56.47,P5
11137,C94,,50.0%,Max,180.4,P4,41.37,P4,-30.60,P4,3.905,P4,168.3,P31,40.48,P4,145.5,P31,168.3,P31
11137,C94,,50.0%,Min,-138.6,P5,-44.67,P5,-145.5,P31,0.1804,P5,20.73,P5,-40.57,P5,48.09,P2,44.45,P3
11137,C94,,75.0%,Max,180.4,P4,41.37,P4,-26.17,P4,3.905,P4,101.7,P4,39.25,P4,139.5,P31,109.0,P4
11137,C94,,75.0%,Min,-138.6,P5,-44.67,P5,-139.5,P31,0.1804,P5,7.350,P5,-37.78,P5,44.08,P2,27.04,P3
11137,C94,4893,100.0%,Max,180.4,P4,41.37,P4,-21.73,P4,3.905,P4,43.46,P4,38.01,P4,133.5,P31,57.74,P4
11137,C94,4893,100.0%,Min,-138.6,P5,-44.67,P5,-133.5,P31,0.1804,P5,-3.939,P5,-35.00,P5,40.16,P2,13.49,P60
11138,C94,7143,0.0%,Max,26.35,P2,42.78,P4,333.5,P24,-2.465,P2,709.3,P27,41.70,P4,333.7,P24,709.4,P27
11138,C94,7143,0.0%,Min,-37.48,P3,-51.04,P5,47.61,P5,-7.154,P6,237.7,P3,-49.90,P5,69.80,P5,239.2,P3
11138,C94,,25.0%,Max,26.35,P2,42.78,P4,338.9,P24,-2.465,P2,847.6,P27,40.64,P4,339.1,P24,847.6,P27
11138,C94,,25.0%,Min,-37.48,P3,-51.04,P5,51.64,P5,-7.154,P6,320.5,P5,-45.30,P5,72.61,P5,323.0,P3
11138,C94,,50.0%,Max,26.35,P2,42.78,P4,344.3,P24,-2.465,P2,989.6,P8,39.58,P4,344.5,P24,989.6,P8
11138,C94,,50.0%,Min,-37.48,P3,-51.04,P5,55.67,P5,-7.154,P6,403.5,P5,-40.71,P5,75.53,P5,405.6,P5
11138,C94,,75.0%,Max,26.35,P2,42.78,P4,349.8,P24,-2.465,P2,1137.,P24,38.52,P4,350.0,P24,1138.,P24
11138,C94,,75.0%,Min,-37.48,P3,-51.04,P5,59.69,P5,-7.154,P6,488.2,P5,-36.11,P5,78.54,P5,489.5,P5
11138,C94,5158,100.0%,Max,26.35,P2,42.78,P4,355.2,P24,-2.465,P2,1288.,P24,37.46,P4,355.4,P24,1288.,P24
11138,C94,5158,100.0%,Min,-37.48,P3,-51.04,P5,63.72,P5,-7.154,P6,574.6,P5,-31.52,P5,81.65,P5,575.5,P5
11139,C94,7134,0.0%,Max,41.00,P2,1.554,P2,65.60,P31,1.730,P2,0.02538,P4,1.685,P4,65.60,P31,3.865,P22
11139,C94,7134,0.0%,Min,-34.34,P3,-2.413,P3,15.05,P3,-0.1755,P3,-3.737,P31,-2.741,P5,15.24,P3,0.5273,P77
11139,C94,,8.3%,Max,41.00,P2,1.554,P2,70.59,P31,1.730,P2,22.98,P31,1.540,P2,70.59,P31,22.99,P31
11139,C94,,8.3%,Min,-34.34,P3,-2.413,P3,18.75,P3,-0.1755,P3,4.764,P3,-2.259,P3,18.90,P3,5.272,P3
11139,C94,,16.7%,Max,41.00,P2,1.554,P2,75.57,P31,1.730,P2,51.66,P31,1.413,P2,75.58,P31,51.66,P31
11139,C94,,16.7%,Min,-34.34,P3,-2.413,P3,22.44,P3,-0.1755,P3,12.99,P3,-1.795,P3,22.57,P3,13.11,P3
11139,C94,,25.0%,Max,41.00,P2,1.554,P2,80.56,P31,1.730,P2,82.29,P31,1.286,P2,80.56,P31,82.29,P31
11139,C94,,25.0%,Min,-34.34,P3,-2.413,P3,26.13,P3,-0.1755,P3,22.67,P3,-1.330,P3,26.24,P3,22.70,P3
11139,C94,,33.3%,Max,41.00,P2,1.554,P2,85.55,P31,1.730,P2,114.9,P31,1.158,P2,85.55,P31,114.9,P31
11139,C94,,33.3%,Min,-34.34,P3,-2.413,P3,29.83,P3,-0.1755,P3,33.79,P3,-0.8657,P3,29.93,P3,33.80,P3
11139,C94,,33.3%,Max,57.65,P2,4.712,P4,175.3,P31,14.59,P24,132.4,P31,4.291,P4,175.3,P31,132.4,P31
11139,C94,,33.3%,Min,-43.50,P3,-6.940,P5,60.90,P3,4.678,P3,39.66,P3,-6.259,P5,61.14,P3,39.95,P3
11139,C94,,41.7%,Max,57.65,P2,4.712,P4,180.3,P31,14.59,P24,202.2,P31,4.378,P4,180.3,P31,202.2,P31
11139,C94,,41.7%,Min,-43.50,P3,-6.940,P5,64.59,P3,4.678,P3,64.32,P3,-5.472,P5,64.82,P3,64.46,P3
11139,C94,,50.0%,Max,57.65,P2,4.712,P4,185.3,P31,14.59,P24,273.9,P31,4.466,P4,185.3,P31,273.9,P31
11139,C94,,50.0%,Min,-43.50,P3,-6.940,P5,68.29,P3,4.678,P3,90.44,P3,-4.685,P5,68.50,P3,90.51,P3
11139,C94,,58.3%,Max,57.65,P2,4.712,P4,190.3,P31,14.59,P24,347.6,P31,4.553,P4,190.3,P31,347.6,P31
11139,C94,,58.3%,Min,-43.50,P3,-6.940,P5,71.98,P3,4.678,P3,118.0,P3,-3.899,P5,72.19,P3,118.0,P3
11139,C94,,66.7%,Max,57.65,P2,4.712,P4,195.3,P31,14.59,P24,423.2,P31,4.640,P4,195.3,P31,423.2,P31
11139,C94,,66.7%,Min,-43.50,P3,-6.940,P5,75.68,P3,4.678,P3,147.0,P3,-3.112,P5,75.87,P3,147.0,P3
11139,C94,,66.7%,Max,80.01,P4,16.74,P4,332.0,P31,-0.5441,P4,452.5,P31,10.03,P4,332.0,P31,452.5,P31
11139,C94,,66.7%,Min,-43.84,P5,-22.29,P5,133.4,P3,-5.052,P6,158.3,P3,-13.45,P5,134.3,P3,158.6,P3
11139,C94,,75.0%,Max,80.01,P4,16.74,P4,337.0,P31,-0.5441,P4,583.7,P31,12.90,P4,337.0,P31,583.7,P31
11139,C94,,75.0%,Min,-43.84,P5,-22.29,P5,137.1,P3,-5.052,P6,211.4,P3,-14.15,P5,138.0,P3,211.7,P3
11139,C94,,83.3%,Max,80.01,P4,16.74,P4,342.0,P31,-0.5441,P4,716.9,P31,15.78,P4,342.0,P31,716.9,P31
11139,C94,,83.3%,Min,-43.84,P5,-22.29,P5,140.8,P3,-5.052,P6,266.0,P3,-14.85,P5,141.6,P3,266.2,P3
11139,C94,,91.7%,Max,80.01,P4,16.74,P4,346.9,P31,-0.5441,P4,852.1,P31,18.66,P4,347.0,P31,852.1,P31
11139,C94,,91.7%,Min,-43.84,P5,-22.29,P5,144.5,P3,-5.052,P6,322.0,P3,-15.55,P5,145.3,P3,322.2,P3
11139,C94,7143,100.0%,Max,80.01,P4,16.74,P4,351.9,P31,-0.5441,P4,989.2,P31,21.53,P4,352.0,P31,989.2,P31
11139,C94,7143,100.0%,Min,-43.84,P5,-22.29,P5,148.2,P3,-5.052,P6,379.5,P3,-16.25,P5,149.0,P3,379.6,P3
11140,C94,7110,0.0%,Max,127.4,P4,22.72,P2,-66.60,P4,2.730,P6,378.4,P33,23.15,P2,155.3,P5,378.4,P33
11140,C94,7110,0.0%,Min,-102.5,P5,-23.28,P3,-154.2,P21,0.8684,P3,158.5,P5,-23.70,P3,69.25,P4,159.8,P5
11140,C94,,12.5%,Max,127.4,P4,22.72,P2,-62.67,P4,2.730,P6,317.3,P33,21.16,P2,151.4,P5,317.3,P33
11140,C94,,12.5%,Min,-102.5,P5,-23.28,P3,-150.1,P5,0.8684,P3,120.0,P5,-21.47,P3,65.48,P4,121.4,P5
11140,C94,,25.0%,Max,127.4,P4,22.72,P2,-58.74,P4,2.730,P6,258.3,P33,19.17,P2,147.5,P5,258.3,P33
11140,C94,,25.0%,Min,-102.5,P5,-23.28,P3,-146.2,P5,0.8684,P3,83.20,P5,-19.24,P3,61.73,P4,84.75,P5
11140,C94,,37.5%,Max,127.4,P4,22.72,P2,-54.81,P4,2.730,P6,202.2,P8,17.18,P2,143.6,P5,202.2,P8
11140,C94,,37.5%,Min,-102.5,P5,-23.28,P3,-142.3,P5,0.8684,P3,48.02,P5,-17.01,P3,58.00,P4,50.03,P5
11140,C94,,50.0%,Max,127.4,P4,22.72,P2,-50.88,P4,2.730,P6,151.8,P22,15.18,P2,139.7,P5,151.8,P22
11140,C94,,50.0%,Min,-102.5,P5,-23.28,P3,-138.4,P5,0.8684,P3,14.47,P5,-14.79,P3,54.31,P4,18.78,P5
11140,C94,,50.0%,Max,122.6,P4,10.49,P2,-24.61,P4,1.206,P4,138.1,P22,8.107,P2,115.9,P5,138.1,P22
11140,C94,,50.0%,Min,-91.67,P5,-11.22,P3,-115.5,P5,0.07614,P5,0.3715,P5,-8.811,P3,26.24,P4,7.979,P5
11140,C94,,62.5%,Max,122.6,P4,10.49,P2,-20.68,P4,1.206,P4,113.6,P22,8.561,P2,112.0,P5,113.6,P22
11140,C94,,62.5%,Min,-91.67,P5,-11.22,P3,-111.6,P5,0.07614,P5,-40.34,P5,-8.959,P3,22.60,P4,0.5684,P78
11140,C94,,75.0%,Max,122.6,P4,10.49,P2,-16.75,P4,1.206,P4,91.30,P22,9.016,P2,108.1,P5,91.30,P22
11140,C94,,75.0%,Min,-91.67,P5,-11.22,P3,-107.6,P5,0.07614,P5,-79.41,P5,-9.107,P3,19.07,P4,0.3878,P62
11140,C94,,87.5%,Max,122.6,P4,10.49,P2,-12.82,P4,1.206,P4,71.23,P22,9.470,P2,104.2,P5,117.1,P5
11140,C94,,87.5%,Min,-91.67,P5,-11.22,P3,-103.7,P5,0.07614,P5,-116.8,P5,-9.256,P3,15.73,P4,13.83,P7
11140,C94,4890,100.0%,Max,122.6,P4,10.49,P2,-8.891,P4,1.206,P4,56.73,P4,9.924,P2,100.3,P5,152.8,P5
11140,C94,4890,100.0%,Min,-91.67,P5,-11.22,P3,-99.78,P5,0.07614,P5,-152.6,P5,-9.404,P3,12.73,P4,6.146,P19
11141,C94,5220,0.0%,Max,56.97,P4,2.103,P2,50.19,P33,-1.517,P4,1.403,P2,2.338,P2,50.19,P33,2.917,P3
11141,C94,5220,0.0%,Min,-42.98,P5,-2.309,P3,19.12,P5,-3.950,P24,-1.052,P3,-2.721,P3,19.22,P5,0.3062,P21
11141,C94,,12.5%,Max,56.97,P4,2.103,P2,56.03,P33,-1.517,P4,23.90,P33,2.134,P2,56.03,P33,23.90,P33
11141,C94,,12.5%,Min,-42.98,P5,-2.309,P3,23.45,P5,-3.950,P24,9.077,P5,-2.423,P3,23.53,P5,9.316,P5
11141,C94,,25.0%,Max,56.97,P4,2.103,P2,61.87,P33,-1.517,P4,50.98,P33,1.930,P2,61.87,P33,50.98,P33
11141,C94,,25.0%,Min,-42.98,P5,-2.309,P3,27.77,P5,-3.950,P24,20.91,P5,-2.124,P3,27.84,P5,20.98,P5
11141,C94,,37.5%,Max,56.97,P4,2.103,P2,67.70,P33,-1.517,P4,80.73,P33,1.726,P2,67.70,P33,80.73,P33
11141,C94,,37.5%,Min,-42.98,P5,-2.309,P3,32.09,P5,-3.950,P24,34.72,P5,-1.826,P3,32.15,P5,34.76,P5
11141,C94,,50.0%,Max,56.97,P4,2.103,P2,73.54,P33,-1.517,P4,113.2,P33,1.523,P2,73.54,P33,113.2,P33
11141,C94,,50.0%,Min,-42.98,P5,-2.309,P3,36.42,P5,-3.950,P24,50.52,P5,-1.528,P3,36.47,P5,50.54,P5
11141,C94,,50.0%,Max,95.35,P4,10.63,P2,126.0,P33,-0.6748,P4,131.0,P33,8.064,P2,126.0,P33,131.0,P33
11141,C94,,50.0%,Min,-73.24,P5,-10.33,P3,58.23,P5,-2.196,P24,58.90,P5,-7.762,P3,58.90,P5,59.32,P5
11141,C94,,62.5%,Max,95.35,P4,10.63,P2,131.8,P33,-0.6748,P4,190.2,P33,8.854,P2,131.8,P33,190.2,P33
11141,C94,,62.5%,Min,-73.24,P5,-10.33,P3,62.56,P5,-2.196,P24,86.71,P5,-8.688,P3,63.18,P5,87.05,P5
11141,C94,,75.0%,Max,95.35,P4,10.63,P2,137.7,P33,-0.6748,P4,252.1,P33,9.645,P2,137.7,P33,252.1,P33
11141,C94,,75.0%,Min,-73.24,P5,-10.33,P3,66.88,P5,-2.196,P24,116.5,P5,-9.614,P3,67.46,P5,116.8,P5
11141,C94,,87.5%,Max,95.35,P4,10.63,P2,143.5,P33,-0.6748,P4,316.7,P33,10.44,P2,143.5,P33,316.7,P33
11141,C94,,87.5%,Min,-73.24,P5,-10.33,P3,71.20,P5,-2.196,P24,148.3,P5,-10.54,P3,71.75,P5,148.6,P5
11141,C94,7110,100.0%,Max,95.35,P4,10.63,P2,149.3,P33,-0.6748,P4,383.9,P33,11.23,P2,149.3,P33,383.9,P33
11141,C94,7110,100.0%,Min,-73.24,P5,-10.33,P3,75.53,P5,-2.196,P24,182.1,P5,-11.47,P3,76.04,P5,182.3,P5
11142,C94,7120,0.0%,Max,141.2,P4,26.18,P2,-62.08,P4,3.225,P21,371.1,P33,25.80,P2,143.5,P5,371.1,P33
11142,C94,7120,0.0%,Min,-108.3,P5,-23.86,P3,-142.3,P5,0.7887,P3,154.5,P5,-23.44,P3,65.40,P4,155.6,P5
11142,C94,,12.5%,Max,141.2,P4,26.18,P2,-58.14,P4,3.225,P21,314.5,P33,23.48,P2,139.6,P5,314.5,P33
11142,C94,,12.5%,Min,-108.3,P5,-23.86,P3,-138.4,P5,0.7887,P3,119.8,P5,-22.09,P3,61.68,P4,121.0,P5
11142,C94,,25.0%,Max,141.2,P4,26.18,P2,-54.20,P4,3.225,P21,260.2,P33,21.15,P2,135.7,P5,260.2,P33
11142,C94,,25.0%,Min,-108.3,P5,-23.86,P3,-134.5,P5,0.7887,P3,86.73,P5,-20.73,P3,57.98,P4,88.20,P5
11142,C94,,37.5%,Max,141.2,P4,26.18,P2,-50.25,P4,3.225,P21,208.6,P8,18.83,P2,131.8,P5,208.6,P8
11142,C94,,37.5%,Min,-108.3,P5,-23.86,P3,-130.5,P5,0.7887,P3,55.34,P5,-19.38,P3,54.31,P4,57.29,P5
11142,C94,,50.0%,Max,141.2,P4,26.18,P2,-46.31,P4,3.225,P21,161.6,P8,16.51,P2,127.9,P5,161.6,P8
11142,C94,,50.0%,Min,-108.3,P5,-23.86,P3,-126.6,P5,0.7887,P3,25.59,P5,-18.03,P3,50.69,P4,28.97,P5
11142,C94,,50.0%,Max,128.9,P4,11.11,P2,-20.13,P4,-2.195,P4,142.0,P22,9.317,P2,110.2,P5,142.0,P22
11142,C94,,50.0%,Min,-91.17,P5,-9.190,P3,-110.0,P5,-5.659,P33,5.274,P5,-7.707,P3,21.99,P4,7.866,P5
11142,C94,,62.5%,Max,128.9,P4,11.11,P2,-16.19,P4,-2.195,P4,121.1,P22,8.908,P2,106.3,P5,121.1,P22
11142,C94,,62.5%,Min,-91.17,P5,-9.190,P3,-106.1,P5,-5.659,P33,-33.88,P5,-8.103,P3,18.45,P4,1.260,P81
11142,C94,,75.0%,Max,128.9,P4,11.11,P2,-12.25,P4,-2.195,P4,102.4,P22,8.499,P2,102.4,P5,102.4,P22
11142,C94,,75.0%,Min,-91.17,P5,-9.190,P3,-102.1,P5,-5.659,P33,-71.39,P5,-8.499,P3,15.11,P4,0.2710,P90
11142,C94,,87.5%,Max,128.9,P4,11.11,P2,-8.310,P4,-2.195,P4,86.18,P24,8.090,P2,98.42,P5,107.5,P5
11142,C94,,87.5%,Min,-91.17,P5,-9.190,P3,-98.18,P5,-5.659,P33,-107.3,P5,-8.895,P3,12.13,P4,8.083,P60
11142,C94,4891,100.0%,Max,128.9,P4,11.11,P2,-4.370,P4,-2.195,P4,72.35,P24,7.682,P2,94.49,P5,141.7,P5
11142,C94,4891,100.0%,Min,-91.17,P5,-9.190,P3,-94.24,P5,-5.659,P33,-141.5,P5,-9.291,P3,9.860,P4,2.828,P7
11143,C94,5218,0.0%,Max,54.05,P4,0.8822,P4,35.24,P33,0.8971,P2,-0.3735,P4,1.443,P2,35.24,P33,2.360,P3
11143,C94,5218,0.0%,Min,-41.17,P5,-0.7669,P5,13.09,P5,0.1659,P3,-2.088,P5,-1.221,P3,13.12,P5,1.037,P70
11143,C94,,8.3%,Max,54.05,P4,0.8822,P4,39.28,P33,0.8971,P2,9.843,P4,1.285,P2,39.28,P33,9.905,P4
11143,C94,,8.3%,Min,-41.17,P5,-0.7669,P5,16.08,P5,0.1659,P3,2.885,P5,-1.099,P3,16.10,P5,3.029,P5
11143,C94,,16.7%,Max,54.05,P4,0.8822,P4,43.31,P33,0.8971,P2,22.87,P33,1.127,P2,43.31,P33,22.87,P33
11143,C94,,16.7%,Min,-41.17,P5,-0.7669,P5,19.07,P5,0.1659,P3,8.808,P5,-0.9777,P3,19.09,P5,8.850,P5
11143,C94,,25.0%,Max,54.05,P4,0.8822,P4,47.35,P33,0.8971,P2,37.27,P33,0.9687,P2,47.35,P33,37.27,P33
11143,C94,,25.0%,Min,-41.17,P5,-0.7669,P5,22.06,P5,0.1659,P3,15.68,P5,-0.8561,P3,22.08,P5,15.70,P5
11143,C94,,33.3%,Max,54.05,P4,0.8822,P4,51.38,P33,0.8971,P2,52.95,P33,0.8269,P4,51.39,P33,52.95,P33
11143,C94,,33.3%,Min,-41.17,P5,-0.7669,P5,25.05,P5,0.1659,P3,23.50,P5,-0.7510,P5,25.07,P5,23.51,P5
11143,C94,,33.3%,Max,83.28,P4,3.332,P2,105.1,P33,2.723,P24,50.79,P33,2.691,P2,105.1,P33,50.79,P33
11143,C94,,33.3%,Min,-65.47,P5,-3.570,P3,46.98,P5,0.8852,P3,22.51,P5,-2.803,P3,47.03,P5,22.59,P5
11143,C94,,41.7%,Max,83.28,P4,3.332,P2,109.1,P33,2.723,P24,84.80,P33,2.479,P2,109.1,P33,84.80,P33
11143,C94,,41.7%,Min,-65.47,P5,-3.570,P3,49.97,P5,0.8852,P3,37.95,P5,-2.515,P3,50.02,P5,37.98,P5
11143,C94,,50.0%,Max,83.28,P4,3.332,P2,113.1,P33,2.723,P24,120.1,P33,2.266,P2,113.1,P33,120.1,P33
11143,C94,,50.0%,Min,-65.47,P5,-3.570,P3,52.96,P5,0.8852,P3,54.33,P5,-2.227,P3,53.00,P5,54.35,P5
11143,C94,,58.3%,Max,83.28,P4,3.332,P2,117.2,P33,2.723,P24,156.7,P33,2.054,P2,117.2,P33,156.7,P33
11143,C94,,58.3%,Min,-65.47,P5,-3.570,P3,55.95,P5,0.8852,P3,71.67,P5,-1.939,P3,55.99,P5,71.68,P5
11143,C94,,66.7%,Max,83.28,P4,3.332,P2,121.2,P33,2.723,P24,194.5,P33,1.841,P2,121.2,P33,194.5,P33
11143,C94,,66.7%,Min,-65.47,P5,-3.570,P3,58.94,P5,0.8852,P3,89.95,P5,-1.651,P3,58.98,P5,89.95,P5
11143,C94,,66.7%,Max,99.88,P4,14.80,P2,147.1,P33,5.333,P24,203.8,P33,6.423,P2,147.1,P33,203.8,P33
11143,C94,,66.7%,Min,-80.59,P5,-16.08,P3,70.62,P5,1.967,P5,94.25,P5,-7.001,P3,71.97,P5,94.49,P5
11143,C94,,75.0%,Max,99.88,P4,14.80,P2,151.1,P33,5.333,P24,251.1,P33,8.177,P2,151.1,P33,251.1,P33
11143,C94,,75.0%,Min,-80.59,P5,-16.08,P3,73.61,P5,1.967,P5,117.2,P5,-8.346,P3,74.90,P5,117.5,P5
11143,C94,,83.3%,Max,99.88,P4,14.80,P2,155.1,P33,5.333,P24,299.8,P33,9.930,P2,155.1,P33,299.8,P33
11143,C94,,83.3%,Min,-80.59,P5,-16.08,P3,76.60,P5,1.967,P5,141.2,P5,-9.690,P3,77.84,P5,141.4,P5
11143,C94,,91.7%,Max,99.88,P4,14.80,P2,159.2,P33,5.333,P24,349.7,P33,11.68,P2,159.2,P33,349.7,P33
11143,C94,,91.7%,Min,-80.59,P5,-16.08,P3,79.59,P5,1.967,P5,166.0,P5,-11.03,P3,80.79,P5,166.3,P5
11143,C94,7120,100.0%,Max,99.88,P4,14.80,P2,163.2,P33,5.333,P24,400.9,P33,13.44,P2,163.2,P33,400.9,P33
11143,C94,7120,100.0%,Min,-80.59,P5,-16.08,P3,82.58,P5,1.967,P5,191.9,P5,-12.38,P3,83.73,P5,192.1,P5
11144,C94,5158,0.0%,Max,119.2,P2,7.900,P4,14.71,P4,0.8028,P4,-11.56,P4,5.741,P4,25.30,P5,82.37,P27
11144,C94,5158,0.0%,Min,-109.6,P3,-5.077,P5,-24.79,P5,0.08500,P5,-82.35,P27,-3.759,P5,3.089,P67,12.90,P4
11144,C94,,8.3%,Max,119.2,P2,7.900,P4,16.05,P4,0.8028,P4,-18.69,P4,4.983,P4,23.98,P5,84.44,P27
11144,C94,,8.3%,Min,-109.6,P3,-5.077,P5,-23.44,P5,0.08500,P5,-84.43,P27,-3.898,P5,1.888,P67,19.35,P4
11144,C94,,16.7%,Max,119.2,P2,7.900,P4,17.40,P4,0.8028,P4,-25.33,P2,4.225,P4,22.67,P5,85.94,P27
11144,C94,,16.7%,Min,-109.6,P3,-5.077,P5,-22.09,P5,0.08500,P5,-85.94,P27,-4.037,P5,1.102,P67,25.41,P2
11144,C94,,25.0%,Max,119.2,P2,7.900,P4,18.74,P4,0.8028,P4,-30.49,P2,3.467,P4,21.36,P5,86.88,P27
11144,C94,,25.0%,Min,-109.6,P3,-5.077,P5,-20.75,P5,0.08500,P5,-86.87,P27,-4.175,P5,0.5241,P43,30.52,P2
11144,C94,,33.3%,Max,119.2,P2,7.900,P4,20.09,P4,0.8028,P4,-35.21,P2,2.708,P4,21.59,P4,87.36,P30
11144,C94,,33.3%,Min,-109.6,P3,-5.077,P5,-19.40,P5,0.08500,P5,-87.36,P30,-4.314,P5,0.2584,P78,35.22,P2
11144,C94,,33.3%,Max,133.2,P4,10.40,P4,85.87,P8,-0.3527,P4,-30.56,P2,6.055,P4,85.93,P8,75.73,P30
11144,C94,,33.3%,Min,-128.0,P5,-7.324,P5,28.66,P3,-2.363,P8,-75.73,P30,-4.204,P5,28.81,P3,30.77,P2
11144,C94,,41.7%,Max,133.2,P4,10.40,P4,87.69,P8,-0.3527,P4,-15.55,P2,5.818,P4,87.75,P8,48.77,P32
11144,C94,,41.7%,Min,-128.0,P5,-7.324,P5,30.01,P3,-2.363,P8,-48.76,P32,-4.943,P5,30.15,P3,15.87,P2
11144,C94,,50.0%,Max,133.2,P4,10.40,P4,89.50,P8,-0.3527,P4,-0.1097,P2,5.580,P4,89.56,P8,23.66,P5
11144,C94,,50.0%,Min,-128.0,P5,-7.324,P5,31.35,P3,-2.363,P8,-23.25,P3,-5.683,P5,31.49,P3,2.821,P2
11144,C94,,58.3%,Max,133.2,P4,10.40,P4,91.32,P8,-0.3527,P4,15.79,P4,5.343,P4,91.38,P8,16.67,P4
11144,C94,,58.3%,Min,-128.0,P5,-7.324,P5,32.70,P3,-2.363,P8,-8.673,P5,-6.422,P5,32.83,P3,0.1443,P75
11144,C94,,66.7%,Max,133.2,P4,10.40,P4,93.14,P8,-0.3527,P4,38.86,P8,5.105,P4,93.20,P8,38.92,P8
11144,C94,,66.7%,Min,-128.0,P5,-7.324,P5,34.04,P3,-2.363,P8,6.045,P5,-7.162,P5,34.17,P3,7.596,P3
11144,C94,,66.7%,Max,153.3,P4,1.667,P4,-40.74,P4,7.928,P8,31.79,P8,1.994,P4,107.0,P32,31.80,P8
11144,C94,,66.7%,Min,-166.4,P5,-1.363,P5,-107.0,P32,2.443,P3,1.130,P5,-1.495,P5,40.78,P4,1.766,P3
11144,C94,,75.0%,Max,153.3,P4,1.667,P4,-39.40,P4,7.928,P8,16.49,P4,1.588,P4,105.2,P32,22.82,P5
11144,C94,,75.0%,Min,-166.4,P5,-1.363,P5,-105.2,P32,2.443,P3,-22.79,P5,-1.187,P5,39.43,P4,0.3882,P58
11144,C94,,83.3%,Max,153.3,P4,1.667,P4,-38.05,P4,7.928,P8,4.111,P4,1.183,P4,103.3,P32,46.30,P5
11144,C94,,83.3%,Min,-166.4,P5,-1.363,P5,-103.3,P32,2.443,P3,-46.29,P5,-0.8777,P5,38.09,P4,1.703,P2
11144,C94,,91.7%,Max,153.3,P4,1.667,P4,-36.71,P4,7.928,P8,-7.840,P4,0.7777,P4,101.5,P32,71.87,P32
11144,C94,,91.7%,Min,-166.4,P5,-1.363,P5,-101.5,P32,2.443,P3,-71.87,P32,-0.5689,P5,36.74,P4,7.878,P4
11144,C94,4894,100.0%,Max,153.3,P4,1.667,P4,-35.36,P4,7.928,P8,-19.36,P4,0.4015,P2,99.70,P32,103.8,P32
11144,C94,4894,100.0%,Min,-166.4,P5,-1.363,P5,-99.70,P32,2.443,P3,-103.8,P32,-0.2892,P3,35.40,P4,19.37,P4
11480,C94,7357,0.0%,Max,346.5,P2,4.119,P4,-27.40,P4,-1.785,P66,561.8,P24,4.664,P2,244.9,P12,561.8,P24
11480,C94,7357,0.0%,Min,-530.4,P3,-9.520,P5,-244.8,P12,-11.79,P12,180.4,P66,-11.02,P3,27.71,P4,180.5,P66
11480,C94,,25.0%,Max,346.5,P2,4.119,P4,-22.54,P4,-1.785,P66,441.7,P24,6.136,P2,238.4,P12,441.8,P24
11480,C94,,25.0%,Min,-530.4,P3,-9.520,P5,-238.2,P12,-11.79,P12,138.9,P5,-9.705,P3,22.91,P4,139.1,P5
11480,C94,,50.0%,Max,346.5,P2,4.119,P4,-17.68,P4,-1.785,P66,335.4,P31,7.607,P2,231.8,P12,335.4,P31
11480,C94,,50.0%,Min,-530.4,P3,-9.520,P5,-231.7,P12,-11.79,P12,81.17,P5,-8.386,P3,18.15,P4,81.55,P5
11480,C94,,75.0%,Max,346.5,P2,4.119,P4,-12.81,P4,-1.785,P66,256.0,P31,9.503,P4,225.3,P12,256.0,P31
11480,C94,,75.0%,Min,-530.4,P3,-9.520,P5,-225.1,P12,-11.79,P12,25.96,P5,-7.491,P5,13.46,P4,27.02,P5
11480,C94,6417,100.0%,Max,346.5,P2,4.119,P4,-7.947,P4,-1.785,P66,186.2,P19,11.85,P4,218.7,P12,186.2,P19
11480,C94,6417,100.0%,Min,-530.4,P3,-9.520,P5,-218.5,P12,-11.79,P12,-37.63,P48,-7.049,P5,8.951,P4,5.294,P60
11481,C94,6416,0.0%,Max,338.2,P2,9.408,P2,-123.0,P48,-4.851,P51,385.2,P30,6.685,P4,291.9,P30,385.2,P30
11481,C94,6416,0.0%,Min,-506.0,P3,-6.978,P3,-291.9,P30,-14.37,P24,155.4,P93,-3.942,P5,123.0,P48,155.4,P93
11481,C94,,4.2%,Max,338.2,P2,9.408,P2,-119.3,P48,-4.851,P51,272.3,P22,6.987,P2,287.0,P30,272.3,P22
11481,C94,,4.2%,Min,-506.0,P3,-6.978,P3,-286.9,P30,-14.37,P24,105.4,P93,-5.194,P3,119.3,P48,105.4,P93
11481,C94,,8.3%,Max,338.2,P2,9.408,P2,-115.6,P48,-4.851,P51,161.9,P22,7.476,P2,282.0,P30,161.9,P22
11481,C94,,8.3%,Min,-506.0,P3,-6.978,P3,-282.0,P30,-14.37,P24,56.85,P93,-6.633,P3,115.7,P48,56.86,P93
11481,C94,,12.5%,Max,338.2,P2,9.408,P2,-112.0,P48,-4.851,P51,53.41,P22,7.965,P2,277.0,P30,53.41,P22
11481,C94,,12.5%,Min,-506.0,P3,-6.978,P3,-277.0,P30,-14.37,P24,5.744,P3,-8.072,P3,112.0,P48,9.037,P5
11481,C94,,16.7%,Max,338.2,P2,9.408,P2,-108.3,P48,-4.851,P51,-17.39,P4,8.454,P2,272.1,P30,59.97,P8
11481,C94,,16.7%,Min,-506.0,P3,-6.978,P3,-272.0,P30,-14.37,P24,-59.95,P8,-9.510,P3,108.3,P48,18.34,P46
11481,C94,,16.7%,Max,353.9,P2,3.090,P4,-78.78,P48,-2.267,P2,-28.86,P70,5.102,P2,192.6,P30,85.06,P8
11481,C94,,16.7%,Min,-575.1,P3,-2.395,P5,-192.6,P30,-8.226,P8,-85.05,P8,-4.239,P3,78.79,P48,28.86,P70
11481,C94,,20.8%,Max,353.9,P2,3.090,P4,-75.10,P48,-2.267,P2,-59.24,P48,5.027,P2,187.6,P30,158.6,P8
11481,C94,,20.8%,Min,-575.1,P3,-2.395,P5,-187.6,P30,-8.226,P8,-158.6,P8,-4.436,P3,75.11,P48,59.25,P48
11481,C94,,25.0%,Max,353.9,P2,3.090,P4,-71.42,P48,-2.267,P2,-87.88,P48,4.953,P2,182.7,P30,230.2,P8
11481,C94,,25.0%,Min,-575.1,P3,-2.395,P5,-182.7,P30,-8.226,P8,-230.2,P8,-4.633,P3,71.43,P48,87.88,P48
11481,C94,,29.2%,Max,353.9,P2,3.090,P4,-67.74,P48,-2.267,P2,-115.1,P48,4.878,P2,177.7,P30,299.8,P8
11481,C94,,29.2%,Min,-575.1,P3,-2.395,P5,-177.7,P30,-8.226,P8,-299.8,P8,-4.831,P3,67.75,P48,115.1,P48
11481,C94,,33.3%,Max,353.9,P2,3.090,P4,-64.06,P48,-2.267,P2,-140.8,P48,4.803,P2,172.7,P30,367.5,P31
11481,C94,,33.3%,Min,-575.1,P3,-2.395,P5,-172.7,P30,-8.226,P8,-367.5,P31,-5.028,P3,64.07,P48,140.9,P48
11481,C94,,33.3%,Max,355.4,P2,3.201,P4,-19.30,P48,0.3699,P2,-145.7,P48,6.095,P2,53.00,P30,380.7,P31
11481,C94,,33.3%,Min,-618.0,P3,-2.134,P5,-52.98,P30,-1.368,P22,-380.7,P31,-4.863,P3,19.34,P48,145.7,P48
11481,C94,,37.5%,Max,355.4,P2,3.201,P4,-15.62,P48,0.3699,P2,-152.5,P48,5.457,P2,48.03,P30,400.3,P31
11481,C94,,37.5%,Min,-618.0,P3,-2.134,P5,-48.02,P30,-1.368,P22,-400.3,P31,-4.642,P3,15.66,P48,152.5,P48
11481,C94,,41.7%,Max,355.4,P2,3.201,P4,-11.94,P48,0.3699,P2,-157.9,P48,4.819,P2,43.07,P30,417.9,P31
11481,C94,,41.7%,Min,-618.0,P3,-2.134,P5,-43.05,P30,-1.368,P22,-417.9,P31,-4.421,P3,12.00,P48,157.9,P48
11481,C94,,45.8%,Max,355.4,P2,3.201,P4,-8.261,P48,0.3699,P2,-161.9,P48,4.181,P2,38.10,P30,433.6,P31
11481,C94,,45.8%,Min,-618.0,P3,-2.134,P5,-38.08,P30,-1.368,P22,-433.6,P31,-4.200,P3,8.339,P48,161.9,P48
11481,C94,,50.0%,Max,355.4,P2,3.201,P4,-4.580,P48,0.3699,P2,-164.4,P48,3.543,P2,33.13,P30,447.3,P31
11481,C94,,50.0%,Min,-618.0,P3,-2.134,P5,-33.11,P30,-1.368,P22,-447.3,P31,-3.979,P3,4.719,P48,164.4,P48
11481,C94,,50.0%,Max,358.1,P2,3.695,P2,58.67,P24,2.362,P31,-162.3,P48,6.365,P2,58.67,P24,443.9,P31
11481,C94,,50.0%,Min,-635.0,P3,-2.784,P3,17.06,P66,0.5255,P5,-443.9,P31,-5.358,P3,17.12,P66,162.3,P48
11481,C94,,54.2%,Max,358.1,P2,3.695,P2,63.64,P24,2.362,P31,-150.6,P48,5.488,P2,63.64,P24,422.2,P30
11481,C94,,54.2%,Min,-635.0,P3,-2.784,P3,20.74,P66,0.5255,P5,-422.2,P30,-4.837,P3,20.79,P66,150.6,P48
11481,C94,,58.3%,Max,358.1,P2,3.695,P2,68.61,P24,2.362,P31,-137.4,P48,4.611,P2,68.61,P24,398.6,P30
11481,C94,,58.3%,Min,-635.0,P3,-2.784,P3,24.42,P66,0.5255,P5,-398.6,P30,-4.316,P3,24.46,P66,137.4,P48
11481,C94,,62.5%,Max,358.1,P2,3.695,P2,73.58,P24,2.362,P31,-122.8,P48,3.734,P2,73.58,P24,373.1,P30
11481,C94,,62.5%,Min,-635.0,P3,-2.784,P3,28.10,P66,0.5255,P5,-373.1,P30,-3.795,P3,28.14,P66,122.8,P48
11481,C94,,66.7%,Max,358.1,P2,3.695,P2,78.55,P24,2.362,P31,-106.7,P48,3.081,P4,78.55,P24,345.6,P30
11481,C94,,66.7%,Min,-635.0,P3,-2.784,P3,31.78,P66,0.5255,P5,-345.6,P30,-3.498,P5,31.82,P66,106.7,P48
11481,C94,,66.7%,Max,360.7,P2,5.907,P2,209.5,P24,21.55,P33,-99.14,P48,6.891,P2,209.6,P24,330.1,P30
11481,C94,,66.7%,Min,-633.9,P3,-5.826,P3,83.08,P66,7.982,P46,-330.1,P30,-6.624,P3,83.13,P66,99.16,P48
11481,C94,,70.8%,Max,360.7,P2,5.907,P2,214.5,P24,21.55,P33,-62.69,P48,6.319,P2,214.5,P24,249.1,P30
11481,C94,,70.8%,Min,-633.9,P3,-5.826,P3,86.76,P66,7.982,P46,-249.1,P30,-6.084,P3,86.81,P66,62.69,P48
11481,C94,,75.0%,Max,360.7,P2,5.907,P2,219.5,P24,21.55,P33,-24.80,P48,5.748,P2,219.5,P24,166.1,P30
11481,C94,,75.0%,Min,-633.9,P3,-5.826,P3,90.44,P66,7.982,P46,-166.1,P30,-5.544,P3,90.49,P66,24.84,P48
11481,C94,,79.2%,Max,360.7,P2,5.907,P2,224.5,P24,21.55,P33,15.57,P4,5.176,P2,224.5,P24,84.69,P18
11481,C94,,79.2%,Min,-633.9,P3,-5.826,P3,94.12,P66,7.982,P46,-84.68,P18,-5.004,P3,94.17,P66,0.9902,P61
11481,C94,,83.3%,Max,360.7,P2,5.907,P2,229.4,P24,21.55,P33,63.91,P4,5.012,P4,229.4,P24,64.10,P4
11481,C94,,83.3%,Min,-633.9,P3,-5.826,P3,97.80,P66,7.982,P46,-32.86,P5,-4.872,P5,97.85,P66,1.735,P44
11481,C94,,83.3%,Max,353.2,P2,9.776,P2,294.0,P24,14.23,P24,83.47,P12,7.648,P2,294.0,P24,83.47,P12
11481,C94,,83.3%,Min,-602.4,P3,-8.441,P3,113.4,P66,2.963,P69,-16.30,P5,-7.280,P3,113.5,P66,0.7689,P42
11481,C94,,87.5%,Max,353.2,P2,9.776,P2,299.0,P24,14.23,P24,189.8,P24,7.554,P2,299.0,P24,189.8,P24
11481,C94,,87.5%,Min,-602.4,P3,-8.441,P3,117.1,P66,2.963,P69,36.44,P5,-7.708,P3,117.1,P66,36.90,P5
11481,C94,,91.7%,Max,353.2,P2,9.776,P2,304.0,P24,14.23,P24,307.6,P24,7.461,P2,304.0,P24,307.6,P24
11481,C94,,91.7%,Min,-602.4,P3,-8.441,P3,120.7,P66,2.963,P69,84.86,P66,-8.136,P3,120.8,P66,84.88,P66
11481,C94,,95.8%,Max,353.2,P2,9.776,P2,308.9,P24,14.23,P24,427.4,P24,7.367,P2,308.9,P24,427.4,P24
11481,C94,,95.8%,Min,-602.4,P3,-8.441,P3,124.4,P66,2.963,P69,132.8,P66,-8.565,P3,124.5,P66,132.8,P66
11481,C94,7357,100.0%,Max,353.2,P2,9.776,P2,313.9,P24,14.23,P24,549.2,P24,7.273,P2,313.9,P24,549.2,P24
11481,C94,7357,100.0%,Min,-602.4,P3,-8.441,P3,128.1,P66,2.963,P69,182.2,P66,-8.993,P3,128.2,P66,182.2,P66
11509,C94,5045,0.0%,Max,33.39,P2,1.358,P4,3.003,P67,2.131,P12,123.9,P2,1.324,P4,132.3,P7,123.9,P2
11509,C94,5045,0.0%,Min,-37.42,P3,-0.9006,P5,-132.3,P7,-0.05034,P81,-85.35,P3,-0.8343,P5,0.1981,P90,0.3723,P45
11509,C94,,12.5%,Max,33.39,P2,1.358,P4,5.182,P67,2.131,P12,81.11,P2,1.138,P4,129.3,P7,88.59,P3
11509,C94,,12.5%,Min,-37.42,P3,-0.9006,P5,-129.3,P7,-0.05034,P81,-88.59,P3,-0.8243,P5,1.523,P66,0.5356,P27
11509,C94,,25.0%,Max,33.39,P2,1.358,P4,7.362,P67,2.131,P12,39.15,P2,0.9512,P4,126.4,P7,90.99,P3
11509,C94,,25.0%,Min,-37.42,P3,-0.9006,P5,-126.4,P7,-0.05034,P81,-90.98,P3,-0.8143,P5,3.133,P92,0.04966,P60
11509,C94,,37.5%,Max,33.39,P2,1.358,P4,9.541,P67,2.131,P12,-1.966,P2,0.7648,P4,123.4,P7,92.54,P3
11509,C94,,37.5%,Min,-37.42,P3,-0.9006,P5,-123.4,P7,-0.05034,P81,-92.54,P3,-0.8043,P5,0.9619,P92,2.080,P2
11509,C94,,50.0%,Max,33.39,P2,1.358,P4,11.72,P67,2.131,P12,-31.52,P60,0.5784,P4,120.5,P7,128.3,P6
11509,C94,,50.0%,Min,-37.42,P3,-0.9006,P5,-120.5,P7,-0.05034,P81,-128.3,P6,-0.7943,P5,1.239,P92,31.52,P60
11509,C94,,50.0%,Max,83.18,P2,1.539,P4,18.29,P67,0.2961,P84,-33.83,P66,1.220,P4,104.0,P7,138.0,P6
11509,C94,,50.0%,Min,-68.41,P3,-0.7123,P5,-104.0,P7,-1.985,P7,-138.0,P6,-0.6857,P58,2.134,P68,33.83,P66
11509,C94,,62.5%,Max,83.18,P2,1.539,P4,20.47,P67,0.2961,P84,-26.99,P67,1.112,P4,101.1,P7,174.5,P7
11509,C94,,62.5%,Min,-68.41,P3,-0.7123,P5,-101.1,P7,-1.985,P7,-174.5,P7,-0.6020,P5,0.2775,P93,26.99,P67
11509,C94,,75.0%,Max,83.18,P2,1.539,P4,22.65,P67,0.2961,P84,-18.67,P67,1.004,P4,98.26,P3,212.9,P7
11509,C94,,75.0%,Min,-68.41,P3,-0.7123,P5,-98.26,P3,-1.985,P7,-212.9,P7,-0.8132,P5,0.4254,P86,18.67,P67
11509,C94,,87.5%,Max,83.18,P2,1.539,P4,24.83,P67,0.2961,P84,-9.513,P67,0.8961,P4,96.08,P3,250.2,P7
11509,C94,,87.5%,Min,-68.41,P3,-0.7123,P5,-96.08,P3,-1.985,P7,-250.2,P7,-1.024,P5,0.7009,P82,9.519,P67
11509,C94,7713,100.0%,Max,83.18,P2,1.539,P4,27.01,P67,0.2961,P84,0.4865,P67,0.7882,P4,93.90,P3,286.3,P7
11509,C94,7713,100.0%,Min,-68.41,P3,-0.7123,P5,-93.90,P3,-1.985,P7,-286.3,P7,-1.235,P5,1.587,P88,0.7327,P67
11510,C94,7713,0.0%,Max,167.3,P2,12.89,P79,71.48,P91,0.4455,P86,5.519,P67,8.679,P79,71.54,P91,288.8,P7
11510,C94,7713,0.0%,Min,-103.7,P3,-8.182,P82,-56.18,P73,-3.470,P7,-288.7,P7,-5.421,P82,1.305,P11,0.5355,P66
11510,C94,,12.5%,Max,167.3,P2,12.89,P79,73.66,P91,0.4455,P86,33.28,P67,5.451,P4,73.72,P91,294.6,P7
11510,C94,,12.5%,Min,-103.7,P3,-8.182,P82,-54.00,P73,-3.470,P7,-294.6,P7,-3.470,P5,2.078,P36,2.427,P92
11510,C94,,25.0%,Max,167.3,P2,12.89,P79,75.84,P91,0.4455,P86,61.89,P67,4.681,P4,75.90,P91,299.4,P7
11510,C94,,25.0%,Min,-103.7,P3,-8.182,P82,-51.82,P73,-3.470,P7,-299.4,P7,-4.908,P5,0.7016,P17,0.7237,P43
11510,C94,,37.5%,Max,167.3,P2,12.89,P79,78.02,P91,0.4455,P86,91.34,P67,4.097,P83,78.08,P91,303.1,P7
11510,C94,,37.5%,Min,-103.7,P3,-8.182,P82,-49.64,P73,-3.470,P7,-303.1,P7,-6.346,P5,1.358,P13,5.125,P84
11510,C94,,50.0%,Max,167.3,P2,12.89,P79,80.20,P91,0.4455,P86,121.6,P67,7.242,P83,80.25,P91,308.0,P73
11510,C94,,50.0%,Min,-103.7,P3,-8.182,P82,-47.46,P73,-3.470,P7,-307.9,P73,-11.21,P79,1.593,P13,9.103,P58
11510,C94,,50.0%,Max,508.0,P79,132.5,P79,87.96,P19,2.940,P83,129.8,P67,73.71,P79,132.8,P79,316.8,P73
11510,C94,,50.0%,Min,-328.5,P83,-90.82,P83,-40.53,P49,-3.942,P79,-313.0,P73,-50.13,P83,9.308,P13,18.77,P69
11510,C94,,62.5%,Max,508.0,P79,132.5,P79,90.91,P19,2.940,P83,162.3,P67,38.80,P2,132.9,P79,328.4,P73
11510,C94,,62.5%,Min,-328.5,P83,-90.82,P83,-38.35,P49,-3.942,P79,-328.0,P73,-31.75,P3,11.75,P13,2.728,P69
11510,C94,,75.0%,Max,508.0,P79,132.5,P79,93.85,P19,2.940,P83,195.6,P67,37.46,P4,133.1,P79,342.7,P73
11510,C94,,75.0%,Min,-328.5,P83,-90.82,P83,-36.17,P49,-3.942,P79,-342.3,P73,-45.16,P5,12.49,P39,14.55,P44
11510,C94,,87.5%,Max,508.0,P79,132.5,P79,96.79,P19,2.940,P83,229.8,P67,55.00,P83,133.4,P79,359.2,P73
11510,C94,,87.5%,Min,-328.5,P83,-90.82,P83,-33.99,P49,-3.942,P79,-355.6,P73,-79.71,P79,12.81,P39,14.44,P8
11510,C94,7451,100.0%,Max,508.0,P79,132.5,P79,99.73,P19,2.940,P83,264.9,P67,90.04,P83,133.6,P79,377.5,P73
11510,C94,7451,100.0%,Min,-328.5,P83,-90.82,P83,-31.81,P49,-3.942,P79,-368.2,P73,-130.8,P79,13.48,P39,28.17,P38
11511,C94,5018,0.0%,Max,192.6,P2,0.8498,P4,23.14,P69,-5.394,P2,602.5,P13,-0.5292,P4,352.0,P13,602.5,P13
11511,C94,5018,0.0%,Min,-298.1,P3,-11.34,P5,-351.9,P13,-27.47,P24,-126.7,P69,-10.25,P22,6.752,P44,10.43,P92
11511,C94,,6.3%,Max,192.6,P2,0.8498,P4,26.55,P69,-5.394,P2,475.8,P13,1.357,P4,347.4,P13,475.8,P13
11511,C94,,6.3%,Min,-298.1,P3,-11.34,P5,-347.3,P13,-27.47,P24,-117.7,P69,-8.111,P5,8.388,P57,3.316,P67
11511,C94,,12.5%,Max,192.6,P2,0.8498,P4,29.96,P69,-5.394,P2,350.8,P13,3.244,P4,342.8,P13,350.8,P13
11511,C94,,12.5%,Min,-298.1,P3,-11.34,P5,-342.7,P13,-27.47,P24,-107.4,P69,-6.197,P5,5.989,P57,1.295,P66
11511,C94,,18.8%,Max,192.6,P2,0.8498,P4,33.37,P69,-5.394,P2,248.9,P4,5.156,P2,338.2,P13,249.0,P4
11511,C94,,18.8%,Min,-298.1,P3,-11.34,P5,-338.1,P13,-27.47,P24,-95.97,P69,-4.308,P3,4.965,P57,2.561,P54
11511,C94,,25.0%,Max,192.6,P2,0.8498,P4,36.78,P69,-5.394,P2,149.1,P4,7.409,P20,333.6,P13,149.2,P4
11511,C94,,25.0%,Min,-298.1,P3,-11.34,P5,-333.5,P13,-27.47,P24,-95.31,P5,-2.683,P3,5.020,P56,6.562,P78
11511,C94,,25.0%,Max,245.5,P2,7.581,P76,39.61,P69,-5.420,P2,134.5,P4,2.918,P2,319.3,P13,134.5,P4
11511,C94,,25.0%,Min,-337.7,P3,-6.336,P68,-319.3,P13,-24.51,P24,-96.24,P5,-2.699,P3,3.872,P56,0.2463,P31
11511,C94,,31.2%,Max,245.5,P2,7.581,P76,43.02,P69,-5.420,P2,82.44,P4,3.605,P2,314.7,P13,143.8,P5
11511,C94,,31.2%,Min,-337.7,P3,-6.336,P68,-314.7,P13,-24.51,P24,-143.8,P5,-4.358,P3,6.232,P4,0.8109,P65
11511,C94,,37.5%,Max,245.5,P2,7.581,P76,46.44,P69,-5.420,P2,31.61,P4,5.330,P68,310.1,P13,190.2,P5
11511,C94,,37.5%,Min,-337.7,P3,-6.336,P68,-310.0,P13,-24.51,P24,-190.1,P5,-6.017,P3,5.012,P4,20.37,P2
11511,C94,,43.7%,Max,245.5,P2,7.581,P76,49.85,P69,-5.420,P2,-17.98,P4,7.626,P68,305.5,P13,254.5,P25
11511,C94,,43.7%,Min,-337.7,P3,-6.336,P68,-305.4,P13,-24.51,P24,-254.5,P25,-8.632,P76,5.889,P4,18.51,P4
11511,C94,,50.0%,Max,245.5,P2,7.581,P76,53.26,P69,-5.420,P2,-13.45,P69,9.922,P68,300.9,P13,361.6,P13
11511,C94,,50.0%,Min,-337.7,P3,-6.336,P68,-300.8,P13,-24.51,P24,-361.6,P13,-11.38,P76,6.824,P92,16.68,P69
11511,C94,,50.0%,Max,289.0,P2,8.357,P4,182.3,P21,56.59,P6,-5.460,P69,11.40,P92,182.4,P21,353.3,P13
11511,C94,,50.0%,Min,-360.9,P3,-9.881,P5,-118.2,P5,6.733,P69,-353.2,P13,-17.39,P79,1.424,P83,11.79,P69
11511,C94,,56.2%,Max,289.0,P2,8.357,P4,186.9,P21,56.59,P6,57.50,P69,12.25,P92,187.0,P21,374.1,P13
11511,C94,,56.2%,Min,-360.9,P3,-9.881,P5,-114.8,P5,6.733,P69,-374.0,P13,-16.08,P75,1.662,P29,0.3768,P57
11511,C94,,62.5%,Max,289.0,P2,8.357,P4,191.5,P21,56.59,P6,121.7,P69,13.53,P68,191.6,P21,393.2,P13
11511,C94,,62.5%,Min,-360.9,P3,-9.881,P5,-111.4,P5,6.733,P69,-393.1,P13,-16.20,P76,1.287,P38,5.404,P91
11511,C94,,68.7%,Max,289.0,P2,8.357,P4,196.1,P21,56.59,P6,187.1,P69,14.95,P69,196.2,P21,410.7,P13
11511,C94,,68.7%,Min,-360.9,P3,-9.881,P5,-108.0,P5,6.733,P69,-410.5,P13,-16.66,P72,1.709,P25,10.61,P42
11511,C94,,75.0%,Max,289.0,P2,8.357,P4,200.7,P21,56.59,P6,253.8,P69,16.45,P69,200.8,P21,429.1,P5
11511,C94,,75.0%,Min,-360.9,P3,-9.881,P5,-104.6,P5,6.733,P69,-429.0,P5,-17.46,P48,2.021,P89,9.154,P81
11511,C94,,75.0%,Max,441.0,P4,212.3,P92,172.1,P21,45.31,P7,263.9,P69,110.6,P68,265.0,P69,441.6,P5
11511,C94,,75.0%,Min,-397.6,P5,-261.5,P76,-112.4,P5,-2.257,P69,-434.1,P5,-133.3,P76,39.23,P58,27.38,P33
11511,C94,,81.2%,Max,441.0,P4,212.3,P92,176.7,P21,45.31,P7,323.9,P69,67.87,P4,267.1,P69,480.8,P5
11511,C94,,81.2%,Min,-397.6,P5,-261.5,P76,-109.0,P5,-2.257,P69,-473.8,P5,-81.65,P5,38.09,P63,14.67,P18
11511,C94,,87.5%,Max,441.0,P4,212.3,P92,181.3,P21,45.31,P7,385.1,P69,98.76,P4,269.3,P69,518.8,P5
11511,C94,,87.5%,Min,-397.6,P5,-261.5,P76,-105.6,P5,-2.257,P69,-512.2,P5,-82.35,P5,36.66,P59,41.30,P86
11511,C94,,93.7%,Max,441.0,P4,212.3,P92,185.9,P21,45.31,P7,447.5,P69,151.3,P74,271.5,P69,555.7,P5
11511,C94,,93.7%,Min,-397.6,P5,-261.5,P76,-102.1,P5,-2.257,P69,-549.4,P5,-121.5,P92,34.55,P59,42.67,P86
11511,C94,7377,100.0%,Max,441.0,P4,212.3,P92,190.6,P21,45.31,P7,511.2,P69,245.7,P76,273.7,P69,591.4,P5
11511,C94,7377,100.0%,Min,-397.6,P5,-261.5,P76,-98.74,P5,-2.257,P69,-585.4,P5,-198.4,P92,32.67,P59,56.40,P86
11512,C94,6417,0.0%,Max,227.9,P2,9.182,P4,-33.78,P48,3.582,P24,145.1,P18,7.941,P4,126.1,P30,145.2,P18
11512,C94,6417,0.0%,Min,-297.6,P3,-9.863,P5,-126.1,P30,0.2875,P5,-40.19,P48,-9.125,P5,33.79,P48,3.914,P61
11512,C94,,6.3%,Max,227.9,P2,9.182,P4,-31.51,P48,3.582,P24,98.34,P4,7.656,P4,123.0,P30,98.64,P4
11512,C94,,6.3%,Min,-297.6,P3,-9.863,P5,-123.0,P30,0.2875,P5,-53.32,P48,-8.566,P5,31.51,P48,0.3907,P47
11512,C94,,12.5%,Max,227.9,P2,9.182,P4,-29.24,P48,3.582,P24,69.35,P4,7.370,P4,119.9,P30,69.74,P4
11512,C94,,12.5%,Min,-297.6,P3,-9.863,P5,-119.9,P30,0.2875,P5,-65.54,P48,-8.007,P5,29.24,P48,0.7577,P88
11512,C94,,18.8%,Max,227.9,P2,9.182,P4,-26.97,P48,3.582,P24,41.27,P4,7.085,P4,116.9,P30,78.04,P5
11512,C94,,18.8%,Min,-297.6,P3,-9.863,P5,-116.9,P30,0.2875,P5,-77.69,P5,-7.447,P5,26.97,P48,1.344,P62
11512,C94,,25.0%,Max,227.9,P2,9.182,P4,-24.70,P48,3.582,P24,14.11,P4,6.799,P4,113.8,P30,108.0,P12
11512,C94,,25.0%,Min,-297.6,P3,-9.863,P5,-113.8,P30,0.2875,P5,-108.0,P12,-6.888,P5,24.70,P48,0.6368,P68
11512,C94,,25.0%,Max,207.9,P2,4.278,P4,-0.3469,P48,2.944,P28,0.8096,P4,3.473,P4,44.52,P18,115.9,P12
11512,C94,,25.0%,Min,-267.1,P3,-5.306,P5,-44.49,P18,0.6751,P5,-115.9,P12,-4.979,P5,0.5690,P48,1.427,P66
11512,C94,,31.3%,Max,207.9,P2,4.278,P4,1.925,P48,2.944,P28,-11.65,P4,3.511,P4,41.45,P18,124.2,P12
11512,C94,,31.3%,Min,-267.1,P3,-5.306,P5,-41.42,P18,0.6751,P5,-124.2,P12,-4.604,P5,0.4110,P52,12.17,P4
11512,C94,,37.5%,Max,207.9,P2,4.278,P4,4.197,P48,2.944,P28,-22.84,P67,3.549,P4,38.39,P18,131.2,P12
11512,C94,,37.5%,Min,-267.1,P3,-5.306,P5,-38.35,P18,0.6751,P5,-131.2,P12,-4.229,P5,0.1876,P76,22.84,P67
11512,C94,,43.8%,Max,207.9,P2,4.278,P4,6.470,P48,2.944,P28,-32.31,P67,3.588,P4,35.32,P18,140.3,P24
11512,C94,,43.8%,Min,-267.1,P3,-5.306,P5,-35.28,P18,0.6751,P5,-140.3,P24,-3.854,P5,0.4269,P41,32.31,P67
11512,C94,,50.0%,Max,207.9,P2,4.278,P4,8.742,P48,2.944,P28,-40.87,P67,3.626,P4,32.26,P18,148.4,P24
11512,C94,,50.0%,Min,-267.1,P3,-5.306,P5,-32.22,P18,0.6751,P5,-148.4,P24,-3.478,P5,0.5837,P64,40.88,P67
11512,C94,,50.0%,Max,179.4,P2,4.365,P4,93.65,P24,-0.5584,P4,-41.22,P67,3.138,P4,93.65,P24,141.5,P24
11512,C94,,50.0%,Min,-226.9,P3,-5.975,P5,20.74,P67,-2.660,P31,-141.5,P24,-5.023,P5,20.79,P67,41.24,P67
11512,C94,,56.3%,Max,179.4,P2,4.365,P4,96.72,P24,-0.5584,P4,-30.51,P4,3.518,P4,96.72,P24,103.2,P24
11512,C94,,56.3%,Min,-226.9,P3,-5.975,P5,23.02,P67,-2.660,P31,-103.2,P24,-4.755,P5,23.06,P67,30.71,P4
11512,C94,,62.5%,Max,179.4,P2,4.365,P4,99.78,P24,-0.5584,P4,-15.73,P4,3.897,P4,99.79,P24,63.65,P24
11512,C94,,62.5%,Min,-226.9,P3,-5.975,P5,25.29,P67,-2.660,P31,-63.65,P24,-4.486,P5,25.33,P67,16.21,P4
11512,C94,,68.8%,Max,179.4,P2,4.365,P4,102.9,P24,-0.5584,P4,0.1355,P2,4.277,P4,102.9,P24,25.29,P30
11512,C94,,68.8%,Min,-226.9,P3,-5.975,P5,27.56,P67,-2.660,P31,-25.28,P30,-4.218,P5,27.60,P67,3.902,P2
11512,C94,,75.0%,Max,179.4,P2,4.365,P4,105.9,P24,-0.5584,P4,20.70,P13,4.656,P4,105.9,P24,20.71,P13
11512,C94,,75.0%,Min,-226.9,P3,-5.975,P5,29.83,P67,-2.660,P31,-1.107,P66,-3.949,P5,29.87,P67,1.019,P68
11512,C94,,75.0%,Max,135.8,P2,8.804,P4,167.9,P24,-0.9519,P2,44.51,P13,5.821,P4,167.9,P24,44.53,P13
11512,C94,,75.0%,Min,-173.9,P3,-11.07,P5,54.44,P66,-2.986,P32,6.550,P66,-8.098,P5,54.49,P66,6.716,P66
11512,C94,,81.3%,Max,135.8,P2,8.804,P4,171.0,P24,-0.9519,P2,112.5,P24,6.807,P4,171.0,P24,112.5,P24
11512,C94,,81.3%,Min,-173.9,P3,-11.07,P5,56.71,P66,-2.986,P32,28.91,P66,-8.173,P5,56.76,P66,28.91,P66
11512,C94,,87.5%,Max,135.8,P2,8.804,P4,174.1,P24,-0.9519,P2,181.9,P24,7.793,P4,174.1,P24,181.9,P24
11512,C94,,87.5%,Min,-173.9,P3,-11.07,P5,58.98,P66,-2.986,P32,52.17,P66,-8.248,P5,59.03,P66,52.18,P66
11512,C94,,93.8%,Max,135.8,P2,8.804,P4,177.1,P24,-0.9519,P2,252.6,P24,8.779,P4,177.1,P24,252.6,P24
11512,C94,,93.8%,Min,-173.9,P3,-11.07,P5,61.26,P66,-2.986,P32,76.36,P66,-8.323,P5,61.30,P66,76.37,P66
11512,C94,7734,100.0%,Max,135.8,P2,8.804,P4,180.2,P24,-0.9519,P2,324.5,P24,9.765,P4,180.2,P24,324.5,P24
11512,C94,7734,100.0%,Min,-173.9,P3,-11.07,P5,63.53,P66,-2.986,P32,101.5,P66,-8.397,P5,63.57,P66,101.5,P66
11513,C94,7729,0.0%,Max,106.7,P4,92.24,P4,-114.7,P73,-1.308,P48,135.6,P20,66.05,P4,293.5,P33,139.4,P2
11513,C94,7729,0.0%,Min,-147.7,P5,-83.17,P5,-293.5,P33,-8.293,P30,-31.70,P3,-58.89,P5,115.5,P73,5.021,P37
11513,C94,,6.0%,Max,106.7,P4,92.24,P4,-111.9,P73,-1.308,P48,80.21,P2,59.94,P4,289.7,P33,94.07,P4
11513,C94,,6.0%,Min,-147.7,P5,-83.17,P5,-289.7,P33,-8.293,P30,-70.36,P3,-55.52,P5,112.7,P73,0.8890,P34
11513,C94,,12.0%,Max,106.7,P4,92.24,P4,-109.0,P73,-1.308,P48,29.92,P2,53.83,P4,285.8,P33,114.1,P5
11513,C94,,12.0%,Min,-147.7,P5,-83.17,P5,-285.8,P33,-8.293,P30,-108.2,P3,-52.14,P5,109.8,P73,0.4788,P44
11513,C94,,18.0%,Max,106.7,P4,92.24,P4,-106.2,P73,-1.308,P48,-19.51,P2,47.72,P4,282.0,P33,170.3,P13
11513,C94,,18.0%,Min,-147.7,P5,-83.17,P5,-282.0,P33,-8.293,P30,-170.3,P13,-48.77,P5,107.0,P73,23.53,P68
11513,C94,,24.0%,Max,106.7,P4,92.24,P4,-103.4,P73,-1.308,P48,-63.14,P68,41.60,P4,278.2,P33,250.8,P25
11513,C94,,24.0%,Min,-147.7,P5,-83.17,P5,-278.2,P33,-8.293,P30,-250.7,P25,-45.40,P5,104.2,P73,63.84,P68
11513,C94,,24.0%,Max,133.1,P4,59.63,P4,-80.65,P73,0.1593,P48,-72.16,P68,26.28,P4,226.6,P33,269.1,P25
11513,C94,,24.0%,Min,-159.2,P5,-53.41,P5,-226.6,P33,-4.428,P20,-269.1,P25,-23.44,P5,81.09,P73,72.23,P68
11513,C94,,30.0%,Max,133.1,P4,59.63,P4,-77.81,P73,0.1593,P48,-106.0,P68,30.00,P4,222.8,P33,333.2,P25
11513,C94,,30.0%,Min,-159.2,P5,-53.41,P5,-222.8,P33,-4.428,P20,-333.2,P25,-29.03,P5,78.26,P73,106.0,P68
11513,C94,,36.0%,Max,133.1,P4,59.63,P4,-74.97,P73,0.1593,P48,-138.2,P66,33.71,P4,219.0,P33,396.1,P25
11513,C94,,36.0%,Min,-159.2,P5,-53.41,P5,-219.0,P33,-4.428,P20,-396.1,P25,-34.62,P5,75.44,P73,138.2,P66
11513,C94,,42.0%,Max,133.1,P4,59.63,P4,-72.12,P73,0.1593,P48,-168.8,P66,37.42,P4,215.1,P33,457.9,P25
11513,C94,,42.0%,Min,-159.2,P5,-53.41,P5,-215.1,P33,-4.428,P20,-457.9,P25,-40.21,P5,72.61,P73,168.8,P66
11513,C94,,48.0%,Max,133.1,P4,59.63,P4,-69.28,P73,0.1593,P48,-198.6,P66,41.14,P4,211.3,P33,518.5,P25
11513,C94,,48.0%,Min,-159.2,P5,-53.41,P5,-211.3,P33,-4.428,P20,-518.5,P25,-45.80,P5,69.79,P73,198.6,P66
11513,C94,,48.0%,Max,79.50,P4,12.92,P4,249.8,P25,2.294,P2,-234.9,P66,6.318,P2,249.8,P25,625.0,P24
11513,C94,,48.0%,Min,-95.45,P5,-10.52,P5,70.06,P68,-1.639,P3,-625.0,P24,-4.774,P3,70.12,P68,234.9,P66
11513,C94,,54.5%,Max,79.50,P4,12.92,P4,254.0,P25,2.294,P2,-210.8,P66,6.965,P4,254.0,P25,542.7,P24
11513,C94,,54.5%,Min,-95.45,P5,-10.52,P5,73.14,P68,-1.639,P3,-542.7,P24,-6.206,P5,73.20,P68,210.8,P66
11513,C94,,61.0%,Max,79.50,P4,12.92,P4,258.2,P25,2.294,P2,-185.6,P66,8.319,P4,258.2,P25,459.1,P24
11513,C94,,61.0%,Min,-95.45,P5,-10.52,P5,76.22,P68,-1.639,P3,-459.1,P24,-8.345,P5,76.28,P68,185.6,P66
11513,C94,,67.5%,Max,79.50,P4,12.92,P4,262.3,P25,2.294,P2,-153.6,P51,9.674,P4,262.3,P25,374.6,P33
11513,C94,,67.5%,Min,-95.45,P5,-10.52,P5,79.30,P68,-1.639,P3,-374.6,P33,-10.49,P5,79.35,P68,153.6,P51
11513,C94,,74.0%,Max,79.50,P4,12.92,P4,266.5,P25,2.294,P2,-111.2,P71,11.03,P4,266.5,P25,297.3,P33
11513,C94,,74.0%,Min,-95.45,P5,-10.52,P5,82.38,P68,-1.639,P3,-297.3,P33,-12.63,P5,82.43,P68,111.2,P71
11513,C94,,74.0%,Max,55.89,P4,21.94,P4,342.4,P25,5.635,P30,-94.78,P2,8.197,P2,342.4,P25,268.3,P33
11513,C94,,74.0%,Min,-91.30,P5,-14.53,P5,110.5,P68,0.1926,P3,-268.2,P33,-5.747,P3,110.5,P68,95.14,P2
11513,C94,,80.5%,Max,55.89,P4,21.94,P4,346.5,P25,5.635,P30,-24.68,P2,9.551,P4,346.6,P25,165.1,P33
11513,C94,,80.5%,Min,-91.30,P5,-14.53,P5,113.6,P68,0.1926,P3,-165.1,P33,-9.527,P5,113.6,P68,26.24,P2
11513,C94,,87.0%,Max,55.89,P4,21.94,P4,350.7,P25,5.635,P30,46.42,P2,10.98,P4,350.7,P25,85.20,P3
11513,C94,,87.0%,Min,-91.30,P5,-14.53,P5,116.7,P68,0.1926,P3,-84.35,P3,-13.38,P5,116.7,P68,1.698,P78
11513,C94,,93.5%,Max,55.89,P4,21.94,P4,354.8,P25,5.635,P30,118.5,P2,12.40,P4,354.9,P25,119.0,P2
11513,C94,,93.5%,Min,-91.30,P5,-14.53,P5,119.7,P68,0.1926,P3,-39.42,P3,-17.23,P5,119.8,P68,0.06920,P44
11513,C94,5968,100.0%,Max,55.89,P4,21.94,P4,359.0,P25,5.635,P30,205.5,P13,13.82,P4,359.0,P25,205.6,P13
11513,C94,5968,100.0%,Min,-91.30,P5,-14.53,P5,122.8,P68,0.1926,P3,6.525,P3,-21.08,P5,122.8,P68,19.42,P3
11514,C94,7493,0.0%,Max,43.63,P4,1.427,P2,-25.96,P4,-12.12,P4,231.2,P4,3.983,P4,169.5,P23,231.3,P4
11514,C94,7493,0.0%,Min,-83.01,P5,-3.801,P3,-169.5,P23,-38.38,P28,-134.3,P5,-6.223,P5,25.98,P4,1.467,P67
11514,C94,,6.3%,Max,43.63,P4,1.427,P2,-22.92,P4,-12.12,P4,180.2,P4,4.074,P4,165.4,P23,180.2,P4
11514,C94,,6.3%,Min,-83.01,P5,-3.801,P3,-165.4,P23,-38.38,P28,-142.2,P5,-5.550,P5,22.96,P4,0.2508,P42
11514,C94,,12.5%,Max,43.63,P4,1.427,P2,-19.89,P4,-12.12,P4,130.1,P4,4.165,P4,161.3,P23,149.2,P5
11514,C94,,12.5%,Min,-83.01,P5,-3.801,P3,-161.3,P23,-38.38,P28,-149.2,P5,-4.876,P5,19.93,P4,0.5891,P83
11514,C94,,18.8%,Max,43.63,P4,1.427,P2,-16.86,P4,-12.12,P4,81.08,P4,4.256,P4,157.2,P23,155.2,P5
11514,C94,,18.8%,Min,-83.01,P5,-3.801,P3,-157.2,P23,-38.38,P28,-155.1,P5,-4.202,P5,16.90,P4,14.80,P47
11514,C94,,25.0%,Max,43.63,P4,1.427,P2,-13.83,P4,-12.12,P4,32.98,P4,4.348,P4,153.1,P23,160.2,P5
11514,C94,,25.0%,Min,-83.01,P5,-3.801,P3,-153.1,P23,-38.38,P28,-160.1,P5,-3.528,P5,13.88,P4,12.26,P2
11514,C94,,25.0%,Max,33.54,P4,2.169,P4,-2.324,P4,-11.33,P4,26.43,P4,2.801,P4,142.9,P5,161.4,P5
11514,C94,,25.0%,Min,-63.88,P5,-3.857,P5,-142.9,P5,-34.34,P31,-161.3,P5,-3.659,P5,3.179,P4,5.872,P2
11514,C94,,31.2%,Max,33.54,P4,2.169,P4,0.7085,P4,-11.33,P4,-17.94,P4,2.605,P4,139.9,P5,176.7,P31
11514,C94,,31.2%,Min,-63.88,P5,-3.857,P5,-139.8,P5,-34.34,P31,-176.7,P31,-2.919,P5,2.282,P4,18.13,P4
11514,C94,,37.5%,Max,33.54,P4,2.169,P4,3.741,P4,-11.33,P4,-61.34,P4,2.408,P4,136.9,P5,214.9,P31
11514,C94,,37.5%,Min,-63.88,P5,-3.857,P5,-136.8,P5,-34.34,P31,-214.9,P31,-2.179,P5,4.324,P4,61.38,P4
11514,C94,,43.7%,Max,33.54,P4,2.169,P4,6.773,P4,-11.33,P4,-103.8,P4,2.212,P4,133.8,P5,252.3,P28
11514,C94,,43.7%,Min,-63.88,P5,-3.857,P5,-133.8,P5,-34.34,P31,-252.3,P28,-1.439,P5,6.631,P2,103.8,P4
11514,C94,,50.0%,Max,33.54,P4,2.169,P4,9.805,P4,-11.33,P4,-126.0,P59,2.016,P4,130.8,P5,289.8,P28
11514,C94,,50.0%,Min,-63.88,P5,-3.857,P5,-130.7,P5,-34.34,P31,-289.8,P28,-0.6997,P5,3.761,P2,126.0,P59
11514,C94,,50.0%,Max,7.669,P4,0.7684,P2,133.0,P4,27.36,P24,-132.4,P69,1.765,P4,133.0,P4,305.7,P28
11514,C94,,50.0%,Min,-33.62,P5,-1.496,P3,-9.073,P5,6.994,P5,-305.7,P28,-1.588,P5,6.593,P3,132.4,P69
11514,C94,,56.2%,Max,7.669,P4,0.7684,P2,137.0,P31,27.36,P24,-112.6,P4,1.825,P4,137.0,P31,264.4,P25
11514,C94,,56.2%,Min,-33.62,P5,-1.496,P3,-6.041,P5,6.994,P5,-264.4,P25,-1.414,P5,6.208,P5,112.6,P4
11514,C94,,62.5%,Max,7.669,P4,0.7684,P2,141.1,P31,27.36,P24,-71.19,P4,1.886,P4,141.1,P31,222.6,P23
11514,C94,,62.5%,Min,-33.62,P5,-1.496,P3,-3.009,P5,6.994,P5,-222.6,P23,-1.240,P5,3.332,P5,71.21,P4
11514,C94,,68.7%,Max,7.669,P4,0.7684,P2,145.2,P31,27.36,P24,-28.81,P4,1.947,P4,145.2,P31,181.1,P23
11514,C94,,68.7%,Min,-33.62,P5,-1.496,P3,0.02359,P5,6.994,P5,-181.1,P23,-1.067,P5,1.432,P5,28.87,P4
11514,C94,,75.0%,Max,7.669,P4,0.7684,P2,149.3,P31,27.36,P24,14.55,P4,2.018,P2,149.3,P31,161.5,P5
11514,C94,,75.0%,Min,-33.62,P5,-1.496,P3,3.056,P5,6.994,P5,-161.5,P5,-0.9039,P3,3.375,P5,2.311,P2
11514,C94,,75.0%,Max,3.360,P4,10.37,P4,175.0,P31,35.43,P24,21.91,P4,4.192,P4,175.1,P31,160.6,P5
11514,C94,,75.0%,Min,-34.14,P5,-8.500,P5,13.89,P5,9.814,P5,-160.6,P5,-3.076,P5,16.29,P5,6.337,P2
11514,C94,,81.3%,Max,3.360,P4,10.37,P4,179.1,P31,35.43,P24,73.62,P4,5.123,P4,179.2,P31,155.6,P5
11514,C94,,81.3%,Min,-34.14,P5,-8.500,P5,16.93,P5,9.814,P5,-155.5,P5,-4.609,P5,18.94,P5,9.221,P67
11514,C94,,87.5%,Max,3.360,P4,10.37,P4,183.2,P31,35.43,P24,126.3,P4,6.053,P4,183.2,P31,149.7,P5
11514,C94,,87.5%,Min,-34.14,P5,-8.500,P5,19.96,P5,9.814,P5,-149.5,P5,-6.143,P5,21.69,P5,0.3585,P64
11514,C94,,93.8%,Max,3.360,P4,10.37,P4,187.3,P31,35.43,P24,180.0,P4,6.983,P4,187.3,P31,180.1,P4
11514,C94,,93.8%,Min,-34.14,P5,-8.500,P5,22.99,P5,9.814,P5,-142.6,P5,-7.676,P5,24.51,P5,0.7494,P59
11514,C94,5962,100.0%,Max,3.360,P4,10.37,P4,191.4,P31,35.43,P24,234.6,P4,7.914,P4,191.4,P31,234.8,P4
11514,C94,5962,100.0%,Min,-34.14,P5,-8.500,P5,26.02,P5,9.814,P5,-134.6,P5,-9.209,P5,27.38,P5,20.94,P47
11537,C94,7767,0.0%,Max,261.4,P55,54.32,P9,-155.8,P2,128.1,P7,886.5,P25,43.13,P9,514.9,P25,886.5,P25
11537,C94,7767,0.0%,Min,-380.6,P3,-47.52,P76,-514.9,P25,17.50,P93,131.9,P3,-37.92,P79,163.1,P2,134.8,P3
11537,C94,,3.3%,Max,261.4,P55,54.32,P9,-152.6,P2,128.1,P7,747.0,P25,31.15,P2,510.6,P25,747.0,P25
11537,C94,,3.3%,Min,-380.6,P3,-47.52,P76,-510.5,P25,17.50,P93,89.30,P3,-24.99,P79,160.1,P2,92.67,P3
11537,C94,,6.6%,Max,261.4,P55,54.32,P9,-149.4,P2,128.1,P7,609.0,P28,24.78,P2,506.3,P25,609.0,P28
11537,C94,,6.6%,Min,-380.6,P3,-47.52,P76,-506.2,P25,17.50,P93,47.56,P3,-21.65,P3,157.0,P2,52.26,P3
11537,C94,,9.9%,Max,261.4,P55,54.32,P9,-146.2,P2,128.1,P7,488.9,P2,18.40,P2,501.9,P25,489.3,P2
11537,C94,,9.9%,Min,-380.6,P3,-47.52,P76,-501.9,P25,17.50,P93,6.695,P3,-18.53,P3,154.0,P2,19.71,P3
11537,C94,,13.1%,Max,261.4,P55,54.32,P9,-143.0,P2,128.1,P7,383.0,P2,14.27,P76,497.6,P25,383.2,P2
11537,C94,,13.1%,Min,-380.6,P3,-47.52,P76,-497.6,P25,17.50,P93,-33.30,P3,-16.11,P93,150.9,P2,30.27,P5
11537,C94,,13.1%,Max,219.9,P55,9.196,P2,-173.7,P2,173.8,P7,354.6,P2,3.543,P2,575.9,P25,354.6,P2
11537,C94,,13.1%,Min,-379.9,P3,-9.301,P3,-575.9,P25,25.38,P93,-48.07,P3,-4.855,P3,173.9,P2,9.057,P5
11537,C94,,16.4%,Max,219.9,P55,9.196,P2,-170.5,P2,173.8,P7,235.8,P2,5.489,P2,571.6,P25,235.8,P2
11537,C94,,16.4%,Min,-379.9,P3,-9.301,P3,-571.6,P25,25.38,P93,-96.29,P3,-6.772,P3,170.7,P2,3.436,P66
11537,C94,,19.7%,Max,219.9,P55,9.196,P2,-167.3,P2,173.8,P7,117.8,P2,7.434,P2,567.2,P25,143.9,P3
11537,C94,,19.7%,Min,-379.9,P3,-9.301,P3,-567.2,P25,25.38,P93,-143.6,P3,-8.689,P3,167.5,P2,1.474,P16
11537,C94,,23.0%,Max,219.9,P55,9.196,P2,-164.1,P2,173.8,P7,0.6240,P2,9.394,P76,562.9,P25,190.4,P8
11537,C94,,23.0%,Min,-379.9,P3,-9.301,P3,-562.9,P25,25.38,P93,-190.3,P8,-10.61,P3,164.3,P2,9.401,P2
11537,C94,,26.3%,Max,219.9,P55,9.196,P2,-160.9,P2,173.8,P7,-115.6,P2,11.63,P76,558.6,P25,335.4,P8
11537,C94,,26.3%,Min,-379.9,P3,-9.301,P3,-558.6,P25,25.38,P93,-335.3,P8,-12.52,P3,161.1,P2,116.2,P2
11537,C94,,26.3%,Max,217.0,P2,6.021,P2,126.0,P2,-20.08,P84,-99.12,P2,8.027,P2,126.1,P2,303.4,P8
11537,C94,,26.3%,Min,-393.8,P3,-5.556,P3,-99.85,P3,-78.36,P6,-303.3,P8,-8.767,P3,0.8951,P71,99.45,P2
11537,C94,,30.9%,Max,217.0,P2,6.021,P2,130.6,P2,-20.08,P84,-77.86,P2,6.544,P2,130.7,P2,282.3,P8
11537,C94,,30.9%,Min,-393.8,P3,-5.556,P3,-95.29,P3,-78.36,P6,-282.3,P8,-7.465,P3,4.038,P64,78.14,P2
11537,C94,,35.6%,Max,217.0,P2,6.021,P2,135.1,P2,-20.08,P84,-54.83,P2,5.061,P2,135.2,P2,267.4,P25
11537,C94,,35.6%,Min,-393.8,P3,-5.556,P3,-90.73,P3,-78.36,P6,-267.4,P25,-6.162,P3,0.2844,P60,55.07,P2
11537,C94,,40.3%,Max,217.0,P2,6.021,P2,139.7,P2,-20.08,P84,-30.04,P2,3.579,P2,139.8,P2,253.0,P25
11537,C94,,40.3%,Min,-393.8,P3,-5.556,P3,-86.17,P3,-78.36,P6,-253.0,P25,-4.860,P3,2.413,P61,30.26,P2
11537,C94,,45.0%,Max,217.0,P2,6.021,P2,144.2,P2,-20.08,P84,-3.489,P2,2.221,P4,144.3,P2,243.2,P3
11537,C94,,45.0%,Min,-393.8,P3,-5.556,P3,-81.62,P3,-78.36,P6,-243.2,P3,-3.682,P5,1.998,P40,4.070,P2
11537,C94,,45.0%,Max,242.9,P2,30.41,P79,157.4,P2,-22.50,P84,3.296,P2,15.13,P79,159.0,P2,245.1,P3
11537,C94,,45.0%,Min,-428.8,P3,-24.26,P85,-69.85,P3,-84.67,P6,-244.7,P3,-14.14,P85,6.475,P41,4.717,P67
11537,C94,,49.6%,Max,242.9,P2,30.41,P79,161.9,P2,-22.50,P84,64.93,P2,13.77,P2,163.5,P2,271.2,P3
11537,C94,,49.6%,Min,-428.8,P3,-24.26,P85,-65.30,P3,-84.67,P6,-270.7,P3,-16.55,P3,9.019,P49,5.371,P91
11537,C94,,54.3%,Max,242.9,P2,30.41,P79,166.5,P2,-22.50,P84,128.3,P2,16.58,P2,168.0,P2,295.5,P3
11537,C94,,54.3%,Min,-428.8,P3,-24.26,P85,-60.74,P3,-84.67,P6,-294.9,P3,-19.11,P3,9.342,P49,1.732,P58
11537,C94,,59.0%,Max,242.9,P2,30.41,P79,171.1,P2,-22.50,P84,193.5,P2,19.39,P2,172.5,P2,318.1,P3
11537,C94,,59.0%,Min,-428.8,P3,-24.26,P85,-56.18,P3,-84.67,P6,-317.4,P3,-21.68,P3,11.61,P49,5.842,P35
11537,C94,,63.7%,Max,242.9,P2,30.41,P79,175.6,P2,-22.50,P84,260.4,P2,23.44,P85,177.1,P2,338.9,P3
11537,C94,,63.7%,Min,-428.8,P3,-24.26,P85,-51.62,P3,-84.67,P6,-338.1,P3,-31.99,P79,14.96,P49,6.159,P23
11537,C94,,63.7%,Max,256.0,P55,32.28,P9,74.91,P2,3.607,P79,393.2,P2,31.69,P9,141.6,P3,394.0,P2
11537,C94,,63.7%,Min,-439.2,P3,-17.96,P79,-141.3,P3,-52.02,P9,-152.1,P3,-15.20,P79,12.23,P45,30.69,P68
11537,C94,,68.2%,Max,256.0,P55,32.28,P9,79.34,P2,3.607,P79,341.7,P2,21.09,P2,137.2,P3,342.3,P2
11537,C94,,68.2%,Min,-439.2,P3,-17.96,P79,-136.9,P3,-52.02,P9,-123.9,P3,-9.171,P3,8.265,P45,24.83,P68
11537,C94,,72.7%,Max,256.0,P55,32.28,P9,83.77,P2,3.607,P79,291.8,P2,16.16,P2,132.8,P3,292.3,P2
11537,C94,,72.7%,Min,-439.2,P3,-17.96,P79,-132.5,P3,-52.02,P9,-94.05,P3,-10.78,P3,5.131,P45,21.20,P68
11537,C94,,77.3%,Max,256.0,P55,32.28,P9,88.20,P2,3.607,P79,243.7,P2,11.22,P2,128.3,P3,243.9,P2
11537,C94,,77.3%,Min,-439.2,P3,-17.96,P79,-128.0,P3,-52.02,P9,-62.53,P3,-12.39,P3,4.856,P45,18.82,P66
11537,C94,,81.8%,Max,256.0,P55,32.28,P9,92.63,P2,3.607,P79,197.1,P2,11.83,P79,123.9,P3,197.2,P2
11537,C94,,81.8%,Min,-439.2,P3,-17.96,P79,-123.6,P3,-52.02,P9,-29.35,P3,-16.92,P9,4.644,P44,13.47,P5
11537,C94,,81.8%,Max,228.2,P2,11.34,P2,102.0,P2,2.248,P79,193.6,P2,4.876,P2,116.9,P3,193.7,P2
11537,C94,,81.8%,Min,-455.1,P3,-11.56,P3,-116.3,P3,-52.82,P9,-25.15,P3,-6.422,P3,0.3277,P33,5.944,P5
11537,C94,,86.4%,Max,228.2,P2,11.34,P2,106.4,P2,2.248,P79,182.2,P2,6.625,P2,112.5,P3,182.3,P2
11537,C94,,86.4%,Min,-455.1,P3,-11.56,P3,-111.9,P3,-52.82,P9,-17.43,P3,-8.089,P3,0.4865,P32,9.233,P5
11537,C94,,90.9%,Max,228.2,P2,11.34,P2,110.9,P2,2.248,P79,172.4,P2,8.373,P2,111.4,P2,172.6,P2
11537,C94,,90.9%,Min,-455.1,P3,-11.56,P3,-107.5,P3,-52.82,P9,-8.040,P3,-9.755,P3,0.4805,P1,12.64,P3
11537,C94,,95.5%,Max,228.2,P2,11.34,P2,115.3,P2,2.248,P79,164.3,P2,10.12,P2,115.8,P2,164.6,P2
11537,C94,,95.5%,Min,-455.1,P3,-11.56,P3,-103.0,P3,-52.82,P9,3.016,P3,-11.42,P3,0.5931,P64,11.81,P3
11537,C94,4792,100.0%,Max,228.2,P2,11.34,P2,119.7,P2,2.248,P79,158.6,P17,11.87,P2,120.3,P2,158.6,P17
11537,C94,4792,100.0%,Min,-455.1,P3,-11.56,P3,-98.60,P3,-52.82,P9,15.74,P3,-13.09,P3,1.454,P60,20.47,P3
11538,C94,5984,0.0%,Max,39.29,P54,9.678,P78,150.7,P2,68.43,P9,263.1,P2,13.16,P78,248.3,P3,263.4,P2
11538,C94,5984,0.0%,Min,-65.13,P5,-9.246,P3,-248.1,P3,-3.715,P78,-187.8,P3,-13.86,P3,1.831,P32,1.908,P10
11538,C94,,12.5%,Max,39.29,P54,9.678,P78,155.1,P2,68.43,P9,212.0,P2,10.47,P2,243.9,P3,212.2,P2
11538,C94,,12.5%,Min,-65.13,P5,-9.246,P3,-243.7,P3,-3.715,P78,-171.5,P3,-11.42,P3,1.945,P26,1.171,P20
11538,C94,,25.0%,Max,39.29,P54,9.678,P78,159.5,P2,68.43,P9,162.5,P2,8.094,P2,239.5,P3,162.7,P2
11538,C94,,25.0%,Min,-65.13,P5,-9.246,P3,-239.3,P3,-3.715,P78,-153.6,P3,-8.985,P3,2.073,P23,2.086,P21
11538,C94,,37.5%,Max,39.29,P54,9.678,P78,163.9,P2,68.43,P9,114.7,P2,5.720,P2,235.1,P3,134.2,P3
11538,C94,,37.5%,Min,-65.13,P5,-9.246,P3,-234.9,P3,-3.715,P78,-134.0,P3,-6.549,P3,1.503,P33,3.287,P84
11538,C94,,50.0%,Max,39.29,P54,9.678,P78,168.3,P2,68.43,P9,76.11,P58,3.346,P2,230.7,P3,136.3,P55
11538,C94,,50.0%,Min,-65.13,P5,-9.246,P3,-230.5,P3,-3.715,P78,-136.3,P55,-4.113,P3,4.798,P30,0.6675,P8
11538,C94,,50.0%,Max,200.5,P78,145.3,P78,180.1,P2,64.79,P9,77.67,P58,52.65,P78,254.9,P3,144.5,P55
11538,C94,,50.0%,Min,-189.5,P9,-127.4,P3,-220.8,P3,-5.699,P78,-138.5,P55,-47.88,P3,11.46,P1,7.336,P33
11538,C94,,62.5%,Max,200.5,P78,145.3,P78,184.5,P2,64.79,P9,138.4,P2,67.35,P2,251.1,P3,211.0,P3
11538,C94,,62.5%,Min,-189.5,P9,-127.4,P3,-216.4,P3,-5.699,P78,-199.4,P3,-69.00,P3,6.479,P1,1.465,P8
11538,C94,,75.0%,Max,200.5,P78,145.3,P78,188.9,P2,64.79,P9,206.1,P2,92.53,P2,247.3,P3,291.6,P3
11538,C94,,75.0%,Min,-189.5,P9,-127.4,P3,-212.0,P3,-5.699,P78,-277.3,P3,-90.13,P3,4.844,P1,13.65,P30
11538,C94,,87.5%,Max,200.5,P78,145.3,P78,193.3,P2,64.79,P9,275.3,P2,117.7,P2,243.6,P3,370.7,P3
11538,C94,,87.5%,Min,-189.5,P9,-127.4,P3,-207.6,P3,-5.699,P78,-353.6,P3,-111.3,P3,8.700,P1,21.86,P1
11538,C94,6031,100.0%,Max,200.5,P78,145.3,P78,197.7,P2,64.79,P9,346.2,P2,142.9,P2,239.8,P3,448.2,P3
11538,C94,6031,100.0%,Min,-189.5,P9,-127.4,P3,-203.2,P3,-5.699,P78,-428.2,P3,-164.9,P78,14.10,P1,18.27,P1
11539,C94,6031,0.0%,Max,109.9,P55,55.65,P78,-181.9,P2,81.42,P7,834.1,P29,81.15,P78,497.5,P29,834.3,P29
11539,C94,6031,0.0%,Min,-247.6,P3,-41.61,P3,-497.4,P25,14.48,P85,91.24,P3,-64.02,P3,188.7,P2,111.5,P3
11539,C94,,5.3%,Max,109.9,P55,55.65,P78,-177.3,P2,81.42,P7,649.1,P2,58.94,P78,491.2,P29,651.4,P2
11539,C94,,5.3%,Min,-247.6,P3,-41.61,P3,-491.0,P25,14.48,P85,18.61,P3,-50.22,P3,184.2,P2,53.56,P3
11539,C94,,10.6%,Max,109.9,P55,55.65,P78,-172.6,P2,81.42,P7,508.1,P2,37.69,P2,484.9,P29,509.5,P2
11539,C94,,10.6%,Min,-247.6,P3,-41.61,P3,-484.7,P25,14.48,P85,-52.16,P3,-36.42,P3,179.7,P2,37.71,P5
11539,C94,,15.9%,Max,109.9,P55,55.65,P78,-167.9,P2,81.42,P7,369.0,P2,20.53,P2,478.5,P29,369.6,P2
11539,C94,,15.9%,Min,-247.6,P3,-41.61,P3,-478.4,P25,14.48,P85,-121.0,P3,-22.61,P3,175.2,P2,11.59,P68
11539,C94,,21.2%,Max,109.9,P55,55.65,P78,-163.2,P2,81.42,P7,231.8,P2,3.376,P2,472.2,P29,231.8,P2
11539,C94,,21.2%,Min,-247.6,P3,-41.61,P3,-472.0,P25,14.48,P85,-188.1,P3,-9.066,P7,170.7,P2,2.629,P67
11539,C94,,21.2%,Max,120.3,P55,5.949,P2,-148.0,P2,75.04,P7,216.6,P2,4.514,P2,445.0,P25,216.7,P2
11539,C94,,21.2%,Min,-247.2,P3,-5.819,P3,-445.0,P25,11.67,P85,-195.4,P3,-5.230,P3,148.1,P2,1.566,P1
11539,C94,,26.5%,Max,120.3,P55,5.949,P2,-143.3,P2,75.04,P7,89.66,P2,4.920,P2,438.7,P25,258.5,P3
11539,C94,,26.5%,Min,-247.2,P3,-5.819,P3,-438.7,P25,11.67,P85,-258.4,P3,-5.689,P3,143.4,P2,1.319,P49
11539,C94,,31.8%,Max,120.3,P55,5.949,P2,-138.6,P2,75.04,P7,-35.44,P2,5.327,P2,432.4,P25,367.5,P32
11539,C94,,31.8%,Min,-247.2,P3,-5.819,P3,-432.4,P25,11.67,P85,-367.5,P32,-6.148,P3,138.8,P2,35.84,P2
11539,C94,,37.2%,Max,120.3,P55,5.949,P2,-133.9,P2,75.04,P7,-158.7,P2,5.734,P2,426.0,P25,526.7,P32
11539,C94,,37.2%,Min,-247.2,P3,-5.819,P3,-426.0,P25,11.67,P85,-526.7,P32,-6.607,P3,134.1,P2,158.8,P2
11539,C94,,42.5%,Max,120.3,P55,5.949,P2,-129.2,P2,75.04,P7,-268.3,P53,6.140,P2,419.7,P25,683.3,P22
11539,C94,,42.5%,Min,-247.2,P3,-5.819,P3,-419.7,P25,11.67,P85,-683.3,P22,-7.066,P3,129.4,P2,268.3,P53
11539,C94,,42.5%,Max,149.5,P2,4.707,P2,158.0,P32,11.34,P33,-286.4,P53,4.708,P2,158.0,P32,715.4,P22
11539,C94,,42.5%,Min,-272.5,P3,-4.100,P3,-14.82,P3,3.642,P3,-715.4,P22,-4.678,P3,3.468,P5,286.4,P53
11539,C94,,47.8%,Max,149.5,P2,4.707,P2,164.4,P32,11.34,P33,-270.3,P2,4.390,P2,164.4,P32,653.0,P22
11539,C94,,47.8%,Min,-272.5,P3,-4.100,P3,-10.10,P3,3.642,P3,-653.0,P22,-4.604,P3,6.577,P5,270.3,P2
11539,C94,,53.1%,Max,149.5,P2,4.707,P2,170.8,P32,11.34,P33,-236.4,P2,4.072,P2,170.8,P32,588.0,P26
11539,C94,,53.1%,Min,-272.5,P3,-4.100,P3,-5.372,P3,3.642,P3,-588.0,P26,-4.530,P3,6.758,P3,236.4,P2
11539,C94,,58.5%,Max,149.5,P2,4.707,P2,177.2,P32,11.34,P33,-200.6,P2,3.755,P2,177.2,P32,520.7,P26
11539,C94,,58.5%,Min,-272.5,P3,-4.100,P3,-0.6475,P3,3.642,P3,-520.7,P26,-4.456,P3,4.151,P3,200.7,P2
11539,C94,,63.8%,Max,149.5,P2,4.707,P2,183.5,P32,11.34,P33,-163.0,P2,3.437,P2,183.5,P32,458.7,P28
11539,C94,,63.8%,Min,-272.5,P3,-4.100,P3,4.077,P3,3.642,P3,-458.7,P28,-4.381,P3,5.782,P3,163.0,P2
11539,C94,,63.8%,Max,183.1,P2,6.199,P2,217.0,P32,3.219,P9,-156.1,P2,2.798,P2,217.0,P32,452.0,P28
11539,C94,,63.8%,Min,-308.0,P3,-6.348,P3,21.79,P3,-1.443,P77,-452.0,P28,-3.881,P3,22.70,P3,156.1,P2
11539,C94,,69.2%,Max,183.1,P2,6.199,P2,223.4,P32,3.219,P9,-80.94,P2,4.337,P2,223.4,P32,375.1,P28
11539,C94,,69.2%,Min,-308.0,P3,-6.348,P3,26.52,P3,-1.443,P77,-375.1,P28,-5.360,P3,27.27,P3,81.06,P2
11539,C94,,74.5%,Max,183.1,P2,6.199,P2,229.7,P32,3.219,P9,-3.879,P2,5.877,P2,229.7,P32,307.7,P3
11539,C94,,74.5%,Min,-308.0,P3,-6.348,P3,31.24,P3,-1.443,P77,-307.6,P3,-6.840,P3,31.88,P3,7.042,P2
11539,C94,,79.8%,Max,183.1,P2,6.199,P2,236.1,P32,3.219,P9,75.08,P2,7.416,P2,236.1,P32,292.6,P3
11539,C94,,79.8%,Min,-308.0,P3,-6.348,P3,35.97,P3,-1.443,P77,-292.5,P3,-8.320,P3,36.52,P3,28.99,P4
11539,C94,,85.2%,Max,183.1,P2,6.199,P2,242.5,P32,3.219,P9,155.9,P2,8.956,P2,242.5,P32,275.7,P3
11539,C94,,85.2%,Min,-308.0,P3,-6.348,P3,40.69,P3,-1.443,P77,-275.5,P3,-9.799,P3,41.18,P3,3.192,P45
11539,C94,,85.2%,Max,217.4,P2,73.36,P76,794.3,P32,-59.13,P93,180.4,P2,31.70,P76,794.5,P32,249.2,P3
11539,C94,,85.2%,Min,-352.3,P3,-79.82,P93,316.1,P53,-323.1,P7,-246.9,P3,-35.23,P93,320.8,P53,0.6147,P18
11539,C94,,88.9%,Max,217.4,P2,73.36,P76,798.7,P32,-59.13,P93,318.1,P2,33.08,P2,799.0,P32,319.8,P2
11539,C94,,88.9%,Min,-352.3,P3,-79.82,P93,319.4,P53,-323.1,P7,-151.6,P3,-35.60,P3,324.0,P53,6.820,P49
11539,C94,,92.6%,Max,217.4,P2,73.36,P76,803.1,P32,-59.13,P93,456.7,P2,38.29,P2,803.4,P32,458.3,P2
11539,C94,,92.6%,Min,-352.3,P3,-79.82,P93,322.7,P53,-323.1,P7,-55.32,P3,-37.60,P3,327.3,P53,31.64,P5
11539,C94,,96.3%,Max,217.4,P2,73.36,P76,807.5,P32,-59.13,P93,653.9,P32,43.49,P2,807.8,P32,654.0,P32
11539,C94,,96.3%,Min,-352.3,P3,-79.82,P93,325.9,P53,-323.1,P7,41.83,P3,-39.60,P3,330.5,P53,57.60,P3
11539,C94,7767,100.0%,Max,217.4,P2,73.36,P76,812.0,P32,-59.13,P93,879.4,P32,53.68,P93,812.2,P32,879.5,P32
11539,C94,7767,100.0%,Min,-352.3,P3,-79.82,P93,329.2,P53,-323.1,P7,139.9,P3,-50.02,P76,333.7,P53,145.9,P3
11576,C94,6157,0.0%,Max,145.6,P4,17.16,P4,-130.2,P79,6.449,P2,804.1,P8,16.84,P4,298.5,P8,804.1,P8
11576,C94,6157,0.0%,Min,-95.35,P5,-14.06,P5,-298.5,P8,0.2426,P3,322.7,P5,-14.12,P5,130.3,P81,323.1,P5
11576,C94,,8.3%,Max,145.6,P4,17.16,P4,-126.1,P79,6.449,P2,676.6,P8,15.17,P4,293.0,P8,676.6,P8
11576,C94,,8.3%,Min,-95.35,P5,-14.06,P5,-293.0,P8,0.2426,P3,261.1,P5,-13.79,P5,126.3,P81,261.5,P5
11576,C94,,16.7%,Max,145.6,P4,17.16,P4,-122.1,P79,6.449,P2,551.4,P8,13.51,P4,287.5,P8,551.4,P8
11576,C94,,16.7%,Min,-95.35,P5,-14.06,P5,-287.5,P8,0.2426,P3,201.2,P5,-13.46,P5,122.2,P81,201.7,P5
11576,C94,,25.0%,Max,145.6,P4,17.16,P4,-118.0,P79,6.449,P2,428.6,P8,11.84,P4,282.1,P8,428.6,P8
11576,C94,,25.0%,Min,-95.35,P5,-14.06,P5,-282.1,P8,0.2426,P3,143.1,P5,-13.13,P5,118.2,P81,143.7,P5
11576,C94,,33.3%,Max,145.6,P4,17.16,P4,-114.0,P79,6.449,P2,308.1,P8,10.17,P4,276.6,P8,308.1,P8
11576,C94,,33.3%,Min,-95.35,P5,-14.06,P5,-276.6,P8,0.2426,P3,86.74,P5,-12.80,P5,114.1,P81,87.68,P5
11576,C94,,33.3%,Max,75.88,P4,6.654,P4,-74.82,P4,20.64,P6,270.1,P8,5.125,P4,169.6,P8,270.1,P8
11576,C94,,33.3%,Min,-53.30,P5,-3.720,P5,-169.6,P8,7.477,P3,69.42,P5,-3.068,P5,75.12,P4,69.49,P5
11576,C94,,41.7%,Max,75.88,P4,6.654,P4,-70.76,P4,20.64,P6,198.1,P8,4.685,P4,164.2,P8,198.1,P8
11576,C94,,41.7%,Min,-53.30,P5,-3.720,P5,-164.1,P8,7.477,P3,37.88,P5,-3.892,P5,71.07,P4,38.08,P5
11576,C94,,50.0%,Max,75.88,P4,6.654,P4,-66.70,P4,20.64,P6,133.1,P4,4.244,P4,158.7,P8,133.2,P4
11576,C94,,50.0%,Min,-53.30,P5,-3.720,P5,-158.7,P8,7.477,P3,8.090,P5,-4.717,P5,67.03,P4,9.365,P5
11576,C94,,58.3%,Max,75.88,P4,6.654,P4,-62.64,P4,20.64,P6,91.07,P4,3.803,P4,153.2,P8,91.15,P4
11576,C94,,58.3%,Min,-53.30,P5,-3.720,P5,-153.2,P8,7.477,P3,-19.95,P5,-5.542,P5,62.99,P4,11.15,P3
11576,C94,,66.7%,Max,75.88,P4,6.654,P4,-58.58,P4,20.64,P6,50.74,P4,3.363,P4,147.7,P8,50.85,P4
11576,C94,,66.7%,Min,-53.30,P5,-3.720,P5,-147.7,P8,7.477,P3,-46.24,P5,-6.366,P5,58.96,P4,2.161,P56
11576,C94,,66.7%,Max,41.48,P2,2.873,P7,29.15,P4,26.29,P24,33.26,P4,1.707,P2,29.25,P4,56.79,P5
11576,C94,,66.7%,Min,-35.72,P3,-0.2656,P3,-22.26,P5,11.03,P57,-56.79,P5,-0.4784,P3,0.9181,P44,0.2522,P59
11576,C94,,75.0%,Max,41.48,P2,2.873,P7,33.21,P4,26.29,P24,24.71,P4,1.280,P2,33.30,P4,43.53,P5
11576,C94,,75.0%,Min,-35.72,P3,-0.2656,P3,-18.20,P5,11.03,P57,-43.52,P5,-1.090,P3,0.5508,P59,0.08949,P83
11576,C94,,83.3%,Max,41.48,P2,2.873,P7,37.27,P4,26.29,P24,17.91,P4,0.8535,P2,37.35,P4,28.53,P5
11576,C94,,83.3%,Min,-35.72,P3,-0.2656,P3,-14.14,P5,11.03,P57,-28.50,P5,-1.701,P3,0.6169,P3,0.2380,P58
11576,C94,,91.7%,Max,41.48,P2,2.873,P7,41.33,P4,26.29,P24,12.86,P4,0.4266,P2,41.40,P4,12.86,P4
11576,C94,,91.7%,Min,-35.72,P3,-0.2656,P3,-10.08,P5,11.03,P57,-11.72,P5,-2.312,P3,3.513,P3,0.5347,P45
11576,C94,7780,100.0%,Max,41.48,P2,2.873,P7,45.39,P4,26.29,P24,16.45,P24,0.03392,P93,45.46,P4,16.65,P24
11576,C94,7780,100.0%,Min,-35.72,P3,-0.2656,P3,-6.023,P5,11.03,P57,6.420,P57,-3.419,P7,6.023,P5,6.464,P69
11577,C94,7112,0.0%,Max,164.7,P2,0.3046,P2,25.70,P8,-0.5716,P2,-52.96,P2,0.2894,P2,25.71,P8,145.7,P24
11577,C94,7112,0.0%,Min,-155.1,P3,-0.7979,P3,7.672,P3,-2.018,P24,-145.7,P24,-0.7211,P3,7.714,P3,52.96,P2
11577,C94,,5.0%,Max,164.7,P2,0.3046,P2,27.53,P8,-0.5716,P2,-50.06,P2,0.3059,P2,27.54,P8,137.2,P22
11577,C94,,5.0%,Min,-155.1,P3,-0.7979,P3,9.030,P3,-2.018,P24,-137.2,P22,-0.5796,P3,9.065,P3,50.06,P2
11577,C94,,10.0%,Max,164.7,P2,0.3046,P2,29.37,P8,-0.5716,P2,-46.71,P2,0.3225,P2,29.37,P8,128.2,P22
11577,C94,,10.0%,Min,-155.1,P3,-0.7979,P3,10.39,P3,-2.018,P24,-128.2,P22,-0.4381,P3,10.42,P3,46.71,P2
11577,C94,,14.9%,Max,164.7,P2,0.3046,P2,31.20,P8,-0.5716,P2,-42.94,P2,0.3391,P2,31.20,P8,118.7,P22
11577,C94,,14.9%,Min,-155.1,P3,-0.7979,P3,11.74,P3,-2.018,P24,-118.7,P22,-0.2966,P3,11.77,P3,42.94,P2
11577,C94,,19.9%,Max,164.7,P2,0.3046,P2,33.03,P8,-0.5716,P2,-38.72,P2,0.3686,P4,33.03,P8,108.5,P22
11577,C94,,19.9%,Min,-155.1,P3,-0.7979,P3,13.10,P3,-2.018,P24,-108.5,P22,-0.1680,P5,13.13,P3,38.73,P2
11577,C94,,19.9%,Max,181.9,P2,0.3232,P2,43.17,P8,0.06851,P4,-40.80,P2,0.4347,P4,43.17,P8,112.8,P22
11577,C94,,19.9%,Min,-161.2,P3,-0.7255,P3,14.86,P3,-1.676,P5,-112.8,P22,-0.7105,P5,14.87,P3,40.80,P2
11577,C94,,24.9%,Max,181.9,P2,0.3232,P2,45.01,P8,0.06851,P4,-35.22,P2,0.4299,P4,45.01,P8,98.82,P22
11577,C94,,24.9%,Min,-161.2,P3,-0.7255,P3,16.21,P3,-1.676,P5,-98.82,P22,-0.5768,P5,16.23,P3,35.22,P2
11577,C94,,29.9%,Max,181.9,P2,0.3232,P2,46.84,P8,0.06851,P4,-29.20,P2,0.4250,P4,46.84,P8,84.26,P22
11577,C94,,29.9%,Min,-161.2,P3,-0.7255,P3,17.57,P3,-1.676,P5,-84.26,P22,-0.4431,P5,17.59,P3,29.20,P2
11577,C94,,34.9%,Max,181.9,P2,0.3232,P2,48.67,P8,0.06851,P4,-22.74,P2,0.4202,P4,48.67,P8,69.12,P22
11577,C94,,34.9%,Min,-161.2,P3,-0.7255,P3,18.93,P3,-1.676,P5,-69.12,P22,-0.3093,P5,18.94,P3,22.74,P2
11577,C94,,39.8%,Max,181.9,P2,0.3232,P2,50.50,P8,0.06851,P4,-14.86,P4,0.4154,P4,50.50,P8,53.38,P22
11577,C94,,39.8%,Min,-161.2,P3,-0.7255,P3,20.29,P3,-1.676,P5,-53.38,P22,-0.1756,P5,20.30,P3,14.86,P4
11577,C94,,39.8%,Max,197.1,P2,1.056,P2,51.95,P8,-1.316,P4,-9.814,P4,0.4734,P2,51.95,P8,42.46,P22
11577,C94,,39.8%,Min,-165.0,P3,-1.723,P3,18.05,P3,-4.056,P6,-42.45,P22,-0.8666,P3,18.13,P3,9.821,P4
11577,C94,,44.8%,Max,197.1,P2,1.056,P2,53.78,P8,-1.316,P4,-0.3323,P4,0.6954,P2,53.79,P8,25.79,P30
11577,C94,,44.8%,Min,-165.0,P3,-1.723,P3,19.40,P3,-4.056,P6,-25.79,P30,-0.8745,P3,19.48,P3,0.6461,P4
11577,C94,,49.8%,Max,197.1,P2,1.056,P2,55.62,P8,-1.316,P4,9.584,P4,0.9174,P2,55.62,P8,16.51,P5
11577,C94,,49.8%,Min,-165.0,P3,-1.723,P3,20.76,P3,-4.056,P6,-16.50,P5,-0.8825,P3,20.83,P3,0.7454,P88
11577,C94,,54.8%,Max,197.1,P2,1.056,P2,57.45,P8,-1.316,P4,19.94,P4,1.139,P2,57.45,P8,19.96,P4
11577,C94,,54.8%,Min,-165.0,P3,-1.723,P3,22.12,P3,-4.056,P6,-6.876,P5,-0.8905,P3,22.19,P3,2.711,P54
11577,C94,,59.8%,Max,197.1,P2,1.056,P2,59.28,P8,-1.316,P4,30.72,P4,1.361,P2,59.28,P8,30.74,P4
11577,C94,,59.8%,Min,-165.0,P3,-1.723,P3,23.48,P3,-4.056,P6,3.179,P5,-0.8985,P3,23.54,P3,3.236,P5
11577,C94,,59.8%,Max,197.2,P2,2.313,P2,136.1,P6,9.054,P6,21.03,P4,1.239,P2,136.1,P6,21.04,P4
11577,C94,,59.8%,Min,-148.7,P3,-3.195,P3,40.91,P5,3.029,P69,-3.735,P5,-2.097,P3,40.95,P5,3.148,P3
11577,C94,,64.8%,Max,197.2,P2,2.313,P2,137.9,P6,9.054,P6,57.01,P8,1.442,P2,137.9,P6,57.02,P8
11577,C94,,64.8%,Min,-148.7,P3,-3.195,P3,42.28,P5,3.029,P69,14.49,P5,-2.015,P3,42.32,P5,14.53,P5
11577,C94,,69.8%,Max,197.2,P2,2.313,P2,139.8,P6,9.054,P6,100.8,P8,1.646,P2,139.8,P6,100.8,P8
11577,C94,,69.8%,Min,-148.7,P3,-3.195,P3,43.65,P5,3.029,P69,33.15,P5,-1.933,P3,43.69,P5,33.17,P5
11577,C94,,74.9%,Max,197.2,P2,2.313,P2,141.6,P6,9.054,P6,146.3,P6,1.849,P2,141.6,P6,146.3,P6
11577,C94,,74.9%,Min,-148.7,P3,-3.195,P3,45.02,P5,3.029,P69,52.26,P5,-1.851,P3,45.06,P5,52.27,P5
11577,C94,,79.9%,Max,197.2,P2,2.313,P2,143.5,P6,9.054,P6,192.4,P6,2.052,P2,143.5,P6,192.4,P6
11577,C94,,79.9%,Min,-148.7,P3,-3.195,P3,46.39,P5,3.029,P69,71.81,P5,-1.769,P3,46.43,P5,71.81,P5
11577,C94,,79.9%,Max,192.2,P2,2.316,P2,102.4,P6,-5.653,P78,213.4,P6,0.8784,P2,102.5,P6,213.4,P6
11577,C94,,79.9%,Min,-118.8,P3,-4.125,P3,26.41,P5,-14.61,P8,79.07,P5,-1.867,P3,26.57,P5,79.08,P5
11577,C94,,84.9%,Max,192.2,P2,2.316,P2,104.3,P6,-5.653,P78,246.8,P6,1.535,P2,104.3,P6,246.8,P6
11577,C94,,84.9%,Min,-118.8,P3,-4.125,P3,27.78,P5,-14.61,P8,87.91,P5,-1.939,P3,27.93,P5,87.92,P5
11577,C94,,89.9%,Max,192.2,P2,2.316,P2,106.1,P6,-5.653,P78,280.9,P6,2.192,P2,106.2,P6,280.9,P6
11577,C94,,89.9%,Min,-118.8,P3,-4.125,P3,29.15,P5,-14.61,P8,97.18,P5,-2.010,P3,29.29,P5,97.19,P5
11577,C94,,95.0%,Max,192.2,P2,2.316,P2,108.0,P6,-5.653,P78,315.5,P6,2.850,P2,108.0,P6,315.5,P6
11577,C94,,95.0%,Min,-118.8,P3,-4.125,P3,30.52,P5,-14.61,P8,106.9,P5,-2.082,P3,30.66,P5,106.9,P5
11577,C94,7775,100.0%,Max,192.2,P2,2.316,P2,109.8,P6,-5.653,P78,350.7,P6,3.507,P2,109.9,P6,350.7,P6
11577,C94,7775,100.0%,Min,-118.8,P3,-4.125,P3,31.89,P5,-14.61,P8,117.1,P5,-2.154,P3,32.02,P5,117.1,P5
11581,C94,5219,0.0%,Max,213.9,P2,13.69,P2,188.4,P33,1.920,P2,-1.910,P2,14.47,P2,188.6,P33,38.56,P30
11581,C94,5219,0.0%,Min,-94.90,P3,-7.321,P3,60.20,P5,-0.2446,P3,-37.82,P31,-6.793,P3,60.36,P5,11.61,P4
11581,C94,,25.0%,Max,213.9,P2,13.69,P2,191.2,P33,1.920,P2,57.49,P2,12.69,P2,191.3,P33,58.87,P2
11581,C94,,25.0%,Min,-94.90,P3,-7.321,P3,62.23,P5,-0.2446,P3,3.786,P3,-8.079,P3,62.39,P5,6.689,P5
11581,C94,,50.0%,Max,213.9,P2,13.69,P2,193.9,P33,1.920,P2,146.9,P8,10.92,P2,194.1,P33,147.0,P8
11581,C94,,50.0%,Min,-94.90,P3,-7.321,P3,64.27,P5,-0.2446,P3,39.36,P3,-9.364,P3,64.42,P5,40.46,P3
11581,C94,,75.0%,Max,213.9,P2,13.69,P2,196.7,P33,1.920,P2,240.2,P6,9.146,P2,196.8,P33,240.2,P6
11581,C94,,75.0%,Min,-94.90,P3,-7.321,P3,66.30,P5,-0.2446,P3,75.91,P3,-10.65,P3,66.45,P5,76.65,P3
11581,C94,7782,100.0%,Max,213.9,P2,13.69,P2,199.4,P33,1.920,P2,335.2,P6,7.372,P2,199.6,P33,335.3,P6
11581,C94,7782,100.0%,Min,-94.90,P3,-7.321,P3,68.34,P5,-0.2446,P3,113.4,P3,-11.93,P3,68.48,P5,114.1,P3
11582,C94,7782,0.0%,Max,206.7,P2,2.960,P2,29.05,P4,0.06818,P2,141.6,P2,5.656,P2,72.99,P5,141.7,P2
11582,C94,7782,0.0%,Min,-135.4,P3,-4.577,P3,-72.91,P5,-0.1509,P3,-42.59,P3,-9.364,P3,5.592,P57,16.92,P57
11582,C94,,25.0%,Max,206.7,P2,2.960,P2,33.02,P4,0.06818,P2,123.5,P4,6.194,P2,69.03,P5,123.5,P4
11582,C94,,25.0%,Min,-135.4,P3,-4.577,P3,-68.95,P5,-0.1509,P3,-61.79,P5,-8.389,P3,1.636,P57,13.54,P57
11582,C94,,50.0%,Max,206.7,P2,2.960,P2,36.98,P4,0.06818,P2,111.4,P4,6.733,P2,65.07,P5,111.5,P4
11582,C94,,50.0%,Min,-135.4,P3,-4.577,P3,-64.98,P5,-0.1509,P3,-79.65,P5,-7.414,P3,1.019,P78,12.13,P60
11582,C94,,75.0%,Max,206.7,P2,2.960,P2,40.95,P4,0.06818,P2,103.1,P4,7.271,P2,61.11,P5,103.2,P4
11582,C94,,75.0%,Min,-135.4,P3,-4.577,P3,-61.02,P5,-0.1509,P3,-93.79,P5,-6.439,P3,0.8400,P42,1.395,P34
11582,C94,7595,100.0%,Max,206.7,P2,2.960,P2,44.91,P4,0.06818,P2,98.42,P4,7.810,P2,57.16,P5,104.3,P5
11582,C94,7595,100.0%,Min,-135.4,P3,-4.577,P3,-57.05,P5,-0.1509,P3,-104.2,P5,-5.465,P3,1.229,P68,1.744,P77
11970,C94,4881,0.0%,Max,101.5,P4,17.36,P2,-29.82,P65,-2.304,P79,297.7,P21,12.73,P2,176.3,P21,297.7,P21
11970,C94,4881,0.0%,Min,-105.6,P5,-15.50,P3,-176.3,P21,-13.93,P22,-153.3,P65,-10.28,P3,29.90,P65,10.03,P8
11970,C94,,6.3%,Max,101.5,P4,17.36,P2,-26.75,P65,-2.304,P79,252.3,P57,12.07,P2,172.2,P21,252.3,P57
11970,C94,,6.3%,Min,-105.6,P5,-15.50,P3,-172.2,P21,-13.93,P22,-162.5,P65,-10.22,P3,26.85,P65,0.3490,P90
11970,C94,,12.5%,Max,101.5,P4,17.36,P2,-23.69,P65,-2.304,P79,218.1,P57,11.40,P2,168.1,P21,218.1,P57
11970,C94,,12.5%,Min,-105.6,P5,-15.50,P3,-168.0,P21,-13.93,P22,-170.9,P61,-10.16,P3,23.79,P65,5.525,P38
11970,C94,,18.8%,Max,101.5,P4,17.36,P2,-20.62,P65,-2.304,P79,184.9,P57,10.74,P2,163.9,P21,185.9,P13
11970,C94,,18.8%,Min,-105.6,P5,-15.50,P3,-163.9,P21,-13.93,P22,-185.9,P13,-10.10,P3,20.74,P65,4.956,P50
11970,C94,,25.0%,Max,101.5,P4,17.36,P2,-17.56,P65,-2.304,P79,152.7,P57,10.07,P2,159.8,P21,215.0,P13
11970,C94,,25.0%,Min,-105.6,P5,-15.50,P3,-159.8,P21,-13.93,P22,-215.0,P13,-10.04,P3,17.70,P65,1.977,P92
11970,C94,,25.0%,Max,111.7,P4,9.182,P2,15.44,P65,-2.498,P2,147.5,P57,6.210,P2,84.35,P21,216.9,P13
11970,C94,,25.0%,Min,-96.66,P5,-11.58,P3,-84.34,P21,-15.05,P8,-216.9,P13,-8.344,P3,2.952,P77,0.6611,P92
11970,C94,,31.3%,Max,111.7,P4,9.182,P2,18.51,P65,-2.498,P2,127.5,P57,6.347,P2,80.21,P21,220.9,P13
11970,C94,,31.3%,Min,-96.66,P5,-11.58,P3,-80.20,P21,-15.05,P8,-220.9,P13,-7.701,P3,1.926,P76,1.154,P42
11970,C94,,37.5%,Max,111.7,P4,9.182,P2,21.57,P65,-2.498,P2,108.5,P57,6.484,P2,76.07,P21,223.6,P13
11970,C94,,37.5%,Min,-96.66,P5,-11.58,P3,-76.07,P21,-15.05,P8,-223.6,P13,-7.058,P3,3.708,P72,2.991,P54
11970,C94,,43.8%,Max,111.7,P4,9.182,P2,24.64,P65,-2.498,P2,90.55,P57,6.621,P2,71.93,P21,224.8,P13
11970,C94,,43.8%,Min,-96.66,P5,-11.58,P3,-71.93,P21,-15.05,P8,-224.8,P13,-6.414,P3,2.800,P17,5.096,P21
11970,C94,,50.0%,Max,111.7,P4,9.182,P2,27.70,P65,-2.498,P2,73.56,P57,6.758,P2,67.79,P21,224.8,P13
11970,C94,,50.0%,Min,-96.66,P5,-11.58,P3,-67.79,P21,-15.05,P8,-224.8,P13,-5.771,P3,3.435,P12,21.12,P80
11970,C94,,50.0%,Max,113.2,P4,4.959,P2,144.7,P29,11.76,P6,59.05,P57,2.589,P2,144.7,P29,251.9,P25
11970,C94,,50.0%,Min,-85.93,P5,-7.276,P3,8.210,P57,1.344,P84,-251.9,P25,-4.457,P3,8.210,P57,8.156,P80
11970,C94,,56.3%,Max,113.2,P4,4.959,P2,148.8,P29,11.76,P6,62.22,P57,3.202,P2,148.8,P29,204.2,P25
11970,C94,,56.3%,Min,-85.93,P5,-7.276,P3,11.28,P57,1.344,P84,-204.2,P25,-4.314,P3,11.28,P57,17.23,P80
11970,C94,,62.5%,Max,113.2,P4,4.959,P2,152.9,P29,11.76,P6,66.39,P57,3.814,P2,153.0,P29,155.3,P25
11970,C94,,62.5%,Min,-85.93,P5,-7.276,P3,14.34,P57,1.344,P84,-155.3,P25,-4.172,P3,14.34,P57,9.219,P21
11970,C94,,68.8%,Max,113.2,P4,4.959,P2,157.1,P29,11.76,P6,71.56,P57,4.426,P2,157.1,P29,105.6,P13
11970,C94,,68.8%,Min,-85.93,P5,-7.276,P3,17.41,P57,1.344,P84,-105.6,P13,-4.030,P3,17.41,P57,1.136,P93
11970,C94,,75.0%,Max,113.2,P4,4.959,P2,161.2,P29,11.76,P6,77.73,P57,5.039,P2,161.2,P29,77.73,P57
11970,C94,,75.0%,Min,-85.93,P5,-7.276,P3,20.47,P57,1.344,P84,-65.28,P3,-3.888,P3,20.47,P57,0.9288,P79
11970,C94,,75.0%,Max,104.2,P4,6.446,P4,140.9,P29,-13.76,P79,73.83,P57,3.673,P2,140.9,P29,73.84,P57
11970,C94,,75.0%,Min,-74.26,P5,-4.846,P5,13.10,P57,-39.57,P32,-67.64,P10,-2.955,P3,13.24,P57,1.034,P32
11970,C94,,81.3%,Max,104.2,P4,6.446,P4,145.0,P29,-13.76,P79,78.60,P57,3.618,P4,145.0,P29,78.60,P57
11970,C94,,81.3%,Min,-74.26,P5,-4.846,P5,16.17,P57,-39.57,P32,-37.60,P58,-3.421,P5,16.28,P57,0.6201,P40
11970,C94,,87.5%,Max,104.2,P4,6.446,P4,149.2,P29,-13.76,P79,86.14,P21,3.567,P4,149.2,P29,86.14,P21
11970,C94,,87.5%,Min,-74.26,P5,-4.846,P5,19.24,P57,-39.57,P32,-20.63,P58,-3.891,P5,19.33,P57,0.7569,P14
11970,C94,,93.8%,Max,104.2,P4,6.446,P4,153.3,P29,-13.76,P79,112.1,P21,3.515,P4,153.3,P29,112.1,P21
11970,C94,,93.8%,Min,-74.26,P5,-4.846,P5,22.30,P57,-39.57,P32,-3.298,P66,-4.361,P5,22.38,P57,0.2471,P67
11970,C94,7959,100.0%,Max,104.2,P4,6.446,P4,157.5,P29,-13.76,P79,140.2,P29,3.464,P4,157.5,P29,140.2,P29
11970,C94,7959,100.0%,Min,-74.26,P5,-4.846,P5,25.37,P57,-39.57,P32,9.663,P66,-4.831,P5,25.44,P57,9.665,P66
11971,C94,7959,0.0%,Max,99.71,P4,7.618,P2,-30.26,P58,8.081,P9,188.9,P21,5.074,P2,239.5,P21,188.9,P21
11971,C94,7959,0.0%,Min,-65.71,P5,-14.94,P3,-239.4,P21,-0.1901,P3,20.01,P66,-10.59,P3,30.28,P58,20.05,P66
11971,C94,,6.3%,Max,99.71,P4,7.618,P2,-27.19,P58,8.081,P9,120.9,P16,6.033,P2,235.3,P21,121.0,P16
11971,C94,,6.3%,Min,-65.71,P5,-14.94,P3,-235.3,P21,-0.1901,P3,1.058,P66,-9.163,P3,27.21,P58,1.274,P66
11971,C94,,12.5%,Max,99.71,P4,7.618,P2,-24.13,P58,8.081,P9,85.20,P2,6.992,P2,231.2,P21,85.48,P2
11971,C94,,12.5%,Min,-65.71,P5,-14.94,P3,-231.2,P21,-0.1901,P3,-19.78,P54,-7.738,P3,24.15,P58,1.265,P47
11971,C94,,18.8%,Max,99.71,P4,7.618,P2,-21.06,P58,8.081,P9,60.91,P60,7.951,P2,227.1,P21,60.91,P60
11971,C94,,18.8%,Min,-65.71,P5,-14.94,P3,-227.0,P21,-0.1901,P3,-53.76,P19,-6.312,P3,21.09,P58,2.242,P7
11971,C94,,25.0%,Max,99.71,P4,7.618,P2,-18.00,P58,8.081,P9,53.34,P60,8.909,P2,222.9,P21,112.2,P21
11971,C94,,25.0%,Min,-65.71,P5,-14.94,P3,-222.9,P21,-0.1901,P3,-112.2,P21,-4.886,P3,18.03,P58,4.309,P17
11971,C94,,25.0%,Max,91.94,P4,1.880,P2,16.23,P2,3.331,P4,51.07,P60,0.5559,P4,157.2,P21,131.5,P21
11971,C94,,25.0%,Min,-66.10,P57,-3.711,P3,-157.2,P21,-1.913,P5,-131.5,P21,-1.247,P5,1.709,P65,0.3225,P77
11971,C94,,31.2%,Max,91.94,P4,1.880,P2,19.29,P2,3.331,P4,53.93,P60,1.245,P2,153.1,P21,182.0,P21
11971,C94,,31.2%,Min,-66.10,P57,-3.711,P3,-153.1,P21,-1.913,P5,-182.0,P21,-1.340,P3,1.550,P34,4.426,P87
11971,C94,,37.5%,Max,91.94,P4,1.880,P2,22.36,P2,3.331,P4,57.78,P60,2.165,P2,148.9,P21,231.2,P21
11971,C94,,37.5%,Min,-66.10,P57,-3.711,P3,-148.9,P21,-1.913,P5,-231.2,P21,-1.663,P3,1.675,P35,2.215,P58
11971,C94,,43.7%,Max,91.94,P4,1.880,P2,25.42,P2,3.331,P4,62.64,P60,3.085,P2,144.8,P21,279.0,P21
11971,C94,,43.7%,Min,-66.10,P57,-3.711,P3,-144.8,P21,-1.913,P5,-279.0,P21,-1.987,P3,1.008,P90,1.167,P59
11971,C94,,50.0%,Max,91.94,P4,1.880,P2,28.49,P2,3.331,P4,68.49,P60,4.005,P2,140.7,P21,325.5,P21
11971,C94,,50.0%,Min,-66.10,P57,-3.711,P3,-140.7,P21,-1.913,P5,-325.5,P21,-2.310,P3,0.9472,P91,0.6490,P63
11971,C94,,50.0%,Max,94.18,P60,2.501,P2,94.88,P10,25.79,P8,73.52,P60,1.354,P4,94.90,P10,329.5,P21
11971,C94,,50.0%,Min,-81.06,P57,-3.415,P3,-74.83,P57,7.136,P79,-329.5,P21,-1.354,P5,0.6333,P79,1.009,P52
11971,C94,,56.2%,Max,94.18,P60,2.501,P2,99.02,P10,25.79,P8,96.72,P60,1.775,P4,99.04,P10,336.6,P21
11971,C94,,56.2%,Min,-81.06,P57,-3.415,P3,-71.77,P57,7.136,P79,-336.6,P21,-1.478,P5,2.026,P93,0.2425,P35
11971,C94,,62.5%,Max,94.18,P60,2.501,P2,103.2,P10,25.79,P8,124.8,P2,2.436,P2,103.2,P10,342.3,P21
11971,C94,,62.5%,Min,-81.06,P57,-3.415,P3,-68.70,P57,7.136,P79,-342.3,P21,-1.841,P3,5.084,P93,4.534,P17
11971,C94,,68.7%,Max,94.18,P60,2.501,P2,107.3,P10,25.79,P8,156.7,P2,3.199,P2,107.3,P10,346.7,P21
11971,C94,,68.7%,Min,-81.06,P57,-3.415,P3,-65.64,P57,7.136,P79,-346.7,P21,-2.306,P3,6.295,P5,1.406,P46
11971,C94,,75.0%,Max,94.18,P60,2.501,P2,111.4,P10,25.79,P8,189.6,P2,3.962,P2,111.5,P10,367.1,P57
11971,C94,,75.0%,Min,-81.06,P57,-3.415,P3,-62.57,P57,7.136,P79,-367.1,P57,-2.772,P3,3.882,P5,2.646,P51
11971,C94,,75.0%,Max,113.5,P2,16.88,P4,183.3,P22,24.50,P8,203.2,P2,7.119,P4,183.3,P22,368.9,P57
11971,C94,,75.0%,Min,-103.6,P57,-10.21,P5,-34.31,P57,5.844,P3,-368.9,P57,-4.540,P5,1.820,P68,3.979,P66
11971,C94,,81.2%,Max,113.5,P2,16.88,P4,187.4,P22,24.50,P8,249.0,P2,7.615,P4,187.4,P22,379.6,P57
11971,C94,,81.2%,Min,-103.6,P57,-10.21,P5,-31.24,P57,5.844,P3,-379.6,P57,-7.209,P5,1.517,P68,2.991,P77
11971,C94,,87.5%,Max,113.5,P2,16.88,P4,191.6,P22,24.50,P8,295.7,P2,8.110,P4,191.6,P22,389.3,P57
11971,C94,,87.5%,Min,-103.6,P57,-10.21,P5,-28.18,P57,5.844,P3,-389.3,P57,-9.877,P5,1.360,P69,1.284,P42
11971,C94,,93.7%,Max,113.5,P2,16.88,P4,195.7,P22,24.50,P8,343.4,P2,8.606,P4,195.7,P22,398.0,P57
11971,C94,,93.7%,Min,-103.6,P57,-10.21,P5,-25.11,P57,5.844,P3,-398.0,P57,-12.55,P5,4.421,P69,2.293,P43
11971,C94,7477,100.0%,Max,113.5,P2,16.88,P4,199.8,P22,24.50,P8,392.1,P2,9.102,P4,199.8,P22,405.7,P57
11971,C94,7477,100.0%,Min,-103.6,P57,-10.21,P5,-22.05,P57,5.844,P3,-405.6,P57,-15.21,P5,5.021,P44,22.29,P54
11979,C94,7588,0.0%,Max,565.8,P2,18.73,P58,-73.63,P81,-7.803,P57,759.6,P9,16.33,P47,324.2,P8,759.7,P9
11979,C94,7588,0.0%,Min,-319.6,P57,-31.72,P5,-324.0,P8,-27.98,P24,-21.10,P3,-29.72,P5,74.81,P81,14.34,P80
11979,C94,,6.3%,Max,565.8,P2,18.73,P58,-70.56,P81,-7.803,P57,658.5,P9,12.65,P4,320.1,P8,658.6,P9
11979,C94,,6.3%,Min,-319.6,P57,-31.72,P5,-319.9,P8,-27.98,P24,-47.31,P3,-24.14,P5,71.80,P81,14.08,P56
11979,C94,,12.5%,Max,565.8,P2,18.73,P58,-67.50,P81,-7.803,P57,558.9,P9,12.44,P4,316.0,P8,558.9,P9
11979,C94,,12.5%,Min,-319.6,P57,-31.72,P5,-315.7,P8,-27.98,P24,-72.53,P3,-18.55,P5,68.79,P81,0.8008,P79
11979,C94,,18.8%,Max,565.8,P2,18.73,P58,-64.43,P81,-7.803,P57,481.7,P2,12.22,P4,311.8,P8,481.8,P2
11979,C94,,18.8%,Min,-319.6,P57,-31.72,P5,-311.6,P8,-27.98,P24,-96.74,P3,-12.97,P5,65.78,P81,1.856,P45
11979,C94,,25.0%,Max,565.8,P2,18.73,P58,-61.37,P81,-7.803,P57,408.4,P2,12.01,P4,307.7,P8,408.5,P2
11979,C94,,25.0%,Min,-319.6,P57,-31.72,P5,-307.5,P8,-27.98,P24,-120.0,P3,-8.498,P58,62.79,P81,7.088,P70
11979,C94,,25.0%,Max,429.1,P2,4.752,P2,-28.18,P2,-7.826,P57,387.6,P2,4.497,P2,222.0,P8,387.6,P2
11979,C94,,25.0%,Min,-251.5,P57,-4.546,P3,-222.0,P8,-26.51,P24,-127.1,P3,-4.048,P3,28.58,P2,13.44,P44
11979,C94,,31.2%,Max,429.1,P2,4.752,P2,-25.11,P2,-7.826,P57,328.2,P2,3.933,P2,217.9,P8,328.2,P2
11979,C94,,31.2%,Min,-251.5,P57,-4.546,P3,-217.9,P8,-26.51,P24,-135.8,P3,-3.551,P3,25.56,P2,0.7791,P77
11979,C94,,37.5%,Max,429.1,P2,4.752,P2,-22.05,P2,-7.826,P57,269.8,P2,3.368,P2,213.7,P8,269.8,P2
11979,C94,,37.5%,Min,-251.5,P57,-4.546,P3,-213.7,P8,-26.51,P24,-143.5,P3,-3.054,P3,22.56,P2,0.5504,P42
11979,C94,,43.7%,Max,429.1,P2,4.752,P2,-18.98,P2,-7.826,P57,212.4,P2,3.054,P4,209.6,P8,212.5,P2
11979,C94,,43.7%,Min,-251.5,P57,-4.546,P3,-209.6,P8,-26.51,P24,-150.2,P3,-2.806,P5,19.57,P2,2.969,P30
11979,C94,,50.0%,Max,429.1,P2,4.752,P2,-15.92,P2,-7.826,P57,156.0,P2,2.912,P4,205.5,P8,156.1,P2
11979,C94,,50.0%,Min,-251.5,P57,-4.546,P3,-205.5,P8,-26.51,P24,-156.0,P3,-2.868,P58,16.61,P2,0.2954,P66
11979,C94,,50.0%,Max,352.2,P2,5.570,P2,44.00,P2,-0.2211,P57,143.1,P2,4.904,P2,114.8,P3,155.7,P3
11979,C94,,50.0%,Min,-203.2,P57,-3.096,P3,-114.8,P3,-6.426,P12,-155.7,P3,-2.777,P3,0.6152,P54,1.730,P48
11979,C94,,56.2%,Max,352.2,P2,5.570,P2,47.06,P2,-0.2211,P57,106.5,P2,4.088,P2,111.8,P3,141.2,P3
11979,C94,,56.2%,Min,-203.2,P57,-3.096,P3,-111.7,P3,-6.426,P12,-141.1,P3,-2.766,P3,0.4350,P44,1.327,P93
11979,C94,,62.5%,Max,352.2,P2,5.570,P2,50.13,P2,-0.2211,P57,70.85,P2,3.273,P2,108.7,P3,141.8,P21
11979,C94,,62.5%,Min,-203.2,P57,-3.096,P3,-108.7,P3,-6.426,P12,-141.8,P21,-2.756,P3,2.915,P72,1.706,P91
11979,C94,,68.7%,Max,352.2,P2,5.570,P2,53.19,P2,-0.2211,P57,36.24,P2,2.457,P2,105.6,P3,144.6,P21
11979,C94,,68.7%,Min,-203.2,P57,-3.096,P3,-105.6,P3,-6.426,P12,-144.6,P21,-2.745,P3,1.688,P51,1.129,P41
11979,C94,,75.0%,Max,352.2,P2,5.570,P2,56.26,P2,-0.2211,P57,6.850,P84,1.831,P4,102.6,P3,146.0,P21
11979,C94,,75.0%,Min,-203.2,P57,-3.096,P3,-102.5,P3,-6.426,P12,-146.0,P21,-3.083,P60,0.5334,P7,3.094,P2
11979,C94,,75.0%,Max,310.7,P2,16.21,P2,100.2,P2,0.7690,P2,3.950,P84,9.628,P2,101.5,P2,139.9,P21
11979,C94,,75.0%,Min,-170.2,P57,-7.208,P3,-60.14,P3,-5.156,P12,-139.9,P21,-4.727,P3,2.365,P37,2.523,P65
11979,C94,,81.2%,Max,310.7,P2,16.21,P2,103.2,P2,0.7690,P2,11.27,P2,8.398,P2,104.5,P2,115.0,P20
11979,C94,,81.2%,Min,-170.2,P57,-7.208,P3,-57.08,P3,-5.156,P12,-114.9,P20,-6.427,P3,1.925,P93,3.431,P65
11979,C94,,87.5%,Max,310.7,P2,16.21,P2,106.3,P2,0.7690,P2,25.67,P2,7.168,P2,107.5,P2,95.86,P18
11979,C94,,87.5%,Min,-170.2,P57,-7.208,P3,-54.01,P3,-5.156,P12,-95.86,P18,-8.126,P3,1.876,P92,4.701,P53
11979,C94,,93.7%,Max,310.7,P2,16.21,P2,109.4,P2,0.7690,P2,41.08,P2,5.939,P2,110.6,P2,79.43,P3
11979,C94,,93.7%,Min,-170.2,P57,-7.208,P3,-50.95,P3,-5.156,P12,-78.82,P3,-9.825,P3,0.4618,P63,2.898,P48
11979,C94,7962,100.0%,Max,310.7,P2,16.21,P2,112.4,P2,0.7690,P2,57.48,P2,4.709,P2,113.6,P2,76.09,P3
11979,C94,7962,100.0%,Min,-170.2,P57,-7.208,P3,-47.88,P3,-5.156,P12,-75.21,P3,-11.52,P3,0.7023,P59,2.141,P40
11980,C94,7962,0.0%,Max,271.2,P2,11.05,P61,-30.90,P56,16.45,P24,51.43,P2,7.369,P85,132.1,P29,51.67,P2
11980,C94,7962,0.0%,Min,-150.7,P81,-10.24,P81,-132.1,P29,5.200,P5,-47.90,P3,-7.252,P81,32.03,P54,3.082,P17
11980,C94,,6.2%,Max,271.2,P2,11.05,P61,-27.83,P56,16.45,P24,28.74,P2,5.377,P4,128.0,P29,73.18,P18
11980,C94,,6.2%,Min,-150.7,P81,-10.24,P81,-127.9,P29,5.200,P5,-73.15,P18,-6.154,P5,29.06,P54,0.7136,P49
11980,C94,,12.5%,Max,271.2,P2,11.05,P61,-24.77,P56,16.45,P24,7.059,P2,5.387,P4,123.8,P29,106.5,P8
11980,C94,,12.5%,Min,-150.7,P81,-10.24,P81,-123.8,P29,5.200,P5,-106.5,P8,-5.875,P5,26.11,P54,8.645,P2
11980,C94,,18.7%,Max,271.2,P2,11.05,P61,-21.71,P56,16.45,P24,-13.63,P2,5.397,P4,119.7,P29,144.3,P8
11980,C94,,18.7%,Min,-150.7,P81,-10.24,P81,-119.7,P29,5.200,P5,-144.3,P8,-5.596,P5,23.18,P54,14.52,P2
11980,C94,,25.0%,Max,271.2,P2,11.05,P61,-18.64,P56,16.45,P24,-32.16,P81,6.077,P81,115.5,P29,180.8,P8
11980,C94,,25.0%,Min,-150.7,P81,-10.24,P81,-115.5,P29,5.200,P5,-180.8,P8,-7.040,P61,20.31,P54,32.72,P57
11980,C94,,25.0%,Max,256.7,P2,8.152,P2,4.215,P56,4.908,P12,-32.44,P57,5.548,P2,58.19,P17,185.3,P8
11980,C94,,25.0%,Min,-141.4,P3,-5.067,P3,-58.02,P17,-0.3308,P5,-185.3,P8,-3.915,P3,0.7893,P69,32.44,P57
11980,C94,,31.2%,Max,256.7,P2,8.152,P2,7.280,P56,4.908,P12,-31.30,P57,4.872,P2,54.07,P17,200.6,P8
11980,C94,,31.2%,Min,-141.4,P3,-5.067,P3,-53.88,P17,-0.3308,P5,-200.6,P8,-4.244,P3,2.603,P46,31.30,P57
11980,C94,,37.5%,Max,256.7,P2,8.152,P2,10.34,P56,4.908,P12,-29.17,P57,4.197,P2,49.95,P17,214.6,P8
11980,C94,,37.5%,Min,-141.4,P3,-5.067,P3,-49.74,P17,-0.3308,P5,-214.6,P8,-4.574,P3,1.667,P50,29.18,P57
11980,C94,,43.7%,Max,256.7,P2,8.152,P2,13.41,P56,4.908,P12,-26.04,P57,3.521,P2,45.83,P17,227.3,P8
11980,C94,,43.7%,Min,-141.4,P3,-5.067,P3,-45.60,P17,-0.3308,P5,-227.3,P8,-4.903,P3,0.5145,P20,26.07,P57
11980,C94,,50.0%,Max,256.7,P2,8.152,P2,16.47,P56,4.908,P12,-21.92,P57,2.846,P2,41.72,P17,238.6,P8
11980,C94,,50.0%,Min,-141.4,P3,-5.067,P3,-41.47,P17,-0.3308,P5,-238.6,P8,-5.232,P3,1.588,P21,21.99,P57
11980,C94,,50.0%,Max,246.4,P2,11.61,P2,169.2,P32,38.56,P22,-32.49,P57,6.815,P2,169.2,P32,271.4,P8
11980,C94,,50.0%,Min,-141.8,P3,-7.949,P3,37.91,P65,12.79,P3,-271.4,P8,-5.328,P3,38.35,P65,32.51,P57
11980,C94,,56.2%,Max,246.4,P2,11.61,P2,173.4,P32,38.56,P22,-5.062,P57,6.386,P2,173.4,P32,222.5,P8
11980,C94,,56.2%,Min,-141.8,P3,-7.949,P3,40.97,P65,12.79,P3,-222.5,P8,-6.092,P3,41.38,P65,5.070,P57
11980,C94,,62.5%,Max,246.4,P2,11.61,P2,177.5,P32,38.56,P22,23.95,P56,5.957,P2,177.5,P32,176.0,P17
11980,C94,,62.5%,Min,-141.8,P3,-7.949,P3,44.04,P65,12.79,P3,-175.9,P17,-6.856,P3,44.42,P65,1.233,P80
11980,C94,,68.7%,Max,246.4,P2,11.61,P2,181.7,P32,38.56,P22,54.10,P56,5.528,P2,181.7,P32,138.5,P3
11980,C94,,68.7%,Min,-141.8,P3,-7.949,P3,47.10,P65,12.79,P3,-138.2,P3,-7.620,P3,47.46,P65,0.9888,P21
11980,C94,,75.0%,Max,246.4,P2,11.61,P2,185.8,P32,38.56,P22,85.25,P56,5.099,P2,185.8,P32,116.0,P3
11980,C94,,75.0%,Min,-141.8,P3,-7.949,P3,50.16,P65,12.79,P3,-115.7,P3,-8.385,P3,50.50,P65,4.155,P62
11980,C94,,75.0%,Max,230.1,P2,10.08,P2,114.4,P18,1.057,P58,84.87,P56,6.236,P2,114.4,P18,120.3,P3
11980,C94,,75.0%,Min,-143.1,P3,-10.76,P3,24.19,P65,-3.676,P5,-120.1,P3,-6.079,P3,24.21,P65,1.268,P58
11980,C94,,81.3%,Max,230.1,P2,10.08,P2,118.5,P18,1.057,P58,107.9,P56,6.732,P2,118.5,P18,109.6,P3
11980,C94,,81.3%,Min,-143.1,P3,-10.76,P3,27.25,P65,-3.676,P5,-109.4,P3,-6.355,P3,27.27,P65,0.3722,P90
11980,C94,,87.5%,Max,230.1,P2,10.08,P2,122.7,P18,1.057,P58,133.2,P20,7.227,P2,122.7,P18,133.2,P20
11980,C94,,87.5%,Min,-143.1,P3,-10.76,P3,30.32,P65,-3.676,P5,-97.66,P3,-6.630,P3,30.33,P65,4.296,P82
11980,C94,,93.8%,Max,230.1,P2,10.08,P2,126.8,P18,1.057,P58,173.8,P20,7.722,P2,126.8,P18,173.8,P20
11980,C94,,93.8%,Min,-143.1,P3,-10.76,P3,33.38,P65,-3.676,P5,-84.94,P3,-6.905,P3,33.40,P65,5.103,P72
11980,C94,4886,100.0%,Max,230.1,P2,10.08,P2,130.9,P18,1.057,P58,215.7,P20,8.218,P2,130.9,P18,215.7,P20
11980,C94,4886,100.0%,Min,-143.1,P3,-10.76,P3,36.44,P65,-3.676,P5,-71.22,P3,-7.181,P3,36.46,P65,4.623,P17
49145,C94,5984,0.0%,Max,60.75,P2,4.918,P2,18.07,P2,-11.28,P2,134.8,P2,6.887,P2,86.68,P3,201.8,P3
49145,C94,5984,0.0%,Min,-57.52,P3,-8.129,P3,-86.30,P3,-44.35,P8,-201.6,P3,-8.744,P3,7.735,P85,2.025,P35
49145,C94,,6.2%,Max,60.75,P2,4.918,P2,22.15,P2,-11.28,P2,105.7,P2,6.433,P2,82.62,P3,194.9,P3
49145,C94,,6.2%,Min,-57.52,P3,-8.129,P3,-82.22,P3,-44.35,P8,-194.8,P3,-7.177,P3,3.734,P85,2.465,P67
49145,C94,,12.5%,Max,60.75,P2,4.918,P2,26.23,P2,-11.28,P2,78.11,P2,5.979,P2,78.56,P3,186.6,P3
49145,C94,,12.5%,Min,-57.52,P3,-8.129,P3,-78.14,P3,-44.35,P8,-186.5,P3,-5.611,P3,1.049,P84,4.330,P76
49145,C94,,18.7%,Max,60.75,P2,4.918,P2,30.30,P2,-11.28,P2,51.90,P2,5.525,P2,74.51,P3,176.9,P3
49145,C94,,18.7%,Min,-57.52,P3,-8.129,P3,-74.06,P3,-44.35,P8,-176.9,P3,-4.044,P3,0.3623,P60,1.668,P42
49145,C94,,25.0%,Max,60.75,P2,4.918,P2,34.38,P2,-11.28,P2,27.09,P2,5.071,P2,70.46,P3,165.8,P3
49145,C94,,25.0%,Min,-57.52,P3,-8.129,P3,-69.99,P3,-44.35,P8,-165.8,P3,-2.478,P3,2.159,P83,1.946,P81
49145,C94,,25.0%,Max,104.2,P2,2.298,P2,54.20,P2,-3.290,P2,25.96,P2,3.777,P9,54.25,P2,163.7,P3
49145,C94,,25.0%,Min,-104.3,P3,-2.886,P78,-50.09,P3,-26.17,P8,-163.7,P3,-3.509,P78,0.4086,P62,3.271,P81
49145,C94,,31.2%,Max,104.2,P2,2.298,P2,58.28,P2,-3.290,P2,9.859,P2,3.250,P4,58.32,P2,144.8,P3
49145,C94,,31.2%,Min,-104.3,P3,-2.886,P78,-46.01,P3,-26.17,P8,-144.8,P3,-2.508,P78,0.4575,P69,2.521,P78
49145,C94,,37.5%,Max,104.2,P2,2.298,P2,62.36,P2,-3.290,P2,-4.465,P55,3.219,P2,62.40,P2,134.3,P9
49145,C94,,37.5%,Min,-104.3,P3,-2.886,P78,-41.94,P3,-26.17,P8,-134.2,P9,-1.852,P3,0.6616,P35,4.679,P55
49145,C94,,43.7%,Max,104.2,P2,2.298,P2,66.43,P2,-3.290,P2,-12.29,P55,3.312,P2,66.47,P2,121.8,P9
49145,C94,,43.7%,Min,-104.3,P3,-2.886,P78,-37.86,P3,-26.17,P8,-121.8,P9,-1.893,P3,1.353,P66,12.31,P55
49145,C94,,50.0%,Max,104.2,P2,2.298,P2,70.51,P2,-3.290,P2,-18.71,P55,3.404,P2,70.55,P2,108.4,P8
49145,C94,,50.0%,Min,-104.3,P3,-2.886,P78,-33.78,P3,-26.17,P8,-108.4,P8,-1.934,P3,0.8313,P44,18.71,P55
49145,C94,,50.0%,Max,153.8,P2,1.725,P2,100.2,P9,10.13,P2,-18.29,P55,2.756,P9,100.2,P9,106.9,P8
49145,C94,,50.0%,Min,-167.7,P3,-1.949,P78,-2.877,P3,-5.619,P3,-106.8,P8,-1.852,P78,1.585,P5,18.36,P55
49145,C94,,56.2%,Max,153.8,P2,1.725,P2,105.7,P9,10.13,P2,-6.099,P4,2.350,P2,105.7,P9,71.64,P8
49145,C94,,56.2%,Min,-167.7,P3,-1.949,P78,1.200,P3,-5.619,P3,-71.62,P8,-1.177,P78,2.096,P3,6.533,P4
49145,C94,,62.5%,Max,153.8,P2,1.725,P2,111.2,P9,10.13,P2,18.92,P2,2.545,P2,111.2,P9,54.88,P3
49145,C94,,62.5%,Min,-167.7,P3,-1.949,P78,5.278,P3,-5.619,P3,-54.87,P3,-1.177,P3,5.550,P3,9.361,P53
49145,C94,,68.7%,Max,153.8,P2,1.725,P2,116.7,P9,10.13,P2,45.66,P2,2.740,P2,116.7,P9,45.74,P2
49145,C94,,68.7%,Min,-167.7,P3,-1.949,P78,9.355,P3,-5.619,P3,-41.53,P3,-1.374,P3,9.512,P3,0.5667,P90
49145,C94,,75.0%,Max,153.8,P2,1.725,P2,122.2,P9,10.13,P2,73.81,P2,2.935,P2,122.2,P9,73.86,P2
49145,C94,,75.0%,Min,-167.7,P3,-1.949,P78,13.43,P3,-5.619,P3,-26.78,P3,-1.571,P3,13.54,P3,1.005,P79
49145,C94,,75.0%,Max,204.0,P2,6.185,P2,167.2,P8,34.12,P8,78.32,P2,3.723,P9,167.3,P8,78.40,P2
49145,C94,,75.0%,Min,-238.8,P3,-1.178,P3,35.94,P54,6.441,P78,-25.79,P3,-0.8774,P78,35.96,P54,0.9031,P55
49145,C94,,81.2%,Max,204.0,P2,6.185,P2,172.7,P8,34.12,P8,125.3,P2,2.934,P2,172.8,P8,125.4,P2
49145,C94,,81.2%,Min,-238.8,P3,-1.178,P3,40.02,P54,6.441,P78,-12.01,P3,-1.789,P3,40.03,P54,4.457,P5
49145,C94,,87.5%,Max,204.0,P2,6.185,P2,178.2,P8,34.12,P8,173.8,P2,2.301,P2,178.3,P8,173.8,P2
49145,C94,,87.5%,Min,-238.8,P3,-1.178,P3,44.09,P54,6.441,P78,3.188,P3,-2.892,P3,44.11,P54,4.304,P3
49145,C94,,93.7%,Max,204.0,P2,6.185,P2,183.7,P8,34.12,P8,233.0,P8,1.668,P2,183.8,P8,233.0,P8
49145,C94,,93.7%,Min,-238.8,P3,-1.178,P3,48.17,P54,6.441,P78,19.80,P3,-3.994,P3,48.18,P54,20.20,P3
49145,C94,26163,100.0%,Max,204.0,P2,6.185,P2,189.2,P8,34.12,P8,297.6,P8,1.035,P2,189.3,P8,297.6,P8
49145,C94,26163,100.0%,Min,-238.8,P3,-1.178,P3,52.25,P54,6.441,P78,37.82,P3,-5.096,P3,52.26,P54,38.16,P3
49146,C94,26163,0.0%,Max,248.5,P2,0.6986,P4,-55.15,P2,-33.65,P78,254.2,P31,1.817,P2,163.7,P31,254.2,P31
49146,C94,26163,0.0%,Min,-288.2,P3,-2.619,P5,-163.7,P31,-87.05,P8,46.99,P3,-2.671,P3,55.16,P2,47.07,P3
49146,C94,,6.2%,Max,248.5,P2,0.6986,P4,-51.08,P2,-33.65,P78,198.5,P31,2.009,P2,158.2,P31,198.5,P31
49146,C94,,6.2%,Min,-288.2,P3,-2.619,P5,-158.2,P31,-87.05,P8,28.37,P3,-2.197,P3,51.08,P2,28.46,P3
49146,C94,,12.5%,Max,248.5,P2,0.6986,P4,-47.00,P2,-33.65,P78,145.2,P19,2.201,P2,152.7,P31,145.2,P19
49146,C94,,12.5%,Min,-288.2,P3,-2.619,P5,-152.6,P31,-87.05,P8,11.17,P3,-1.724,P3,47.00,P2,11.30,P3
49146,C94,,18.7%,Max,248.5,P2,0.6986,P4,-42.92,P2,-33.65,P78,95.34,P19,2.392,P2,147.2,P31,95.34,P19
49146,C94,,18.7%,Min,-288.2,P3,-2.619,P5,-147.1,P31,-87.05,P8,-4.628,P3,-1.251,P3,42.92,P2,1.390,P5
49146,C94,,25.0%,Max,248.5,P2,0.6986,P4,-38.85,P2,-33.65,P78,52.79,P2,2.584,P2,141.7,P31,52.85,P2
49146,C94,,25.0%,Min,-288.2,P3,-2.619,P5,-141.6,P31,-87.05,P8,-19.01,P3,-0.7776,P3,38.85,P2,3.497,P84
49146,C94,,25.0%,Max,306.9,P2,1.406,P2,-34.40,P2,-29.74,P2,47.42,P2,2.302,P2,122.6,P31,47.47,P2
49146,C94,,25.0%,Min,-364.9,P3,-0.9305,P3,-122.6,P31,-79.27,P8,-23.71,P3,-0.8775,P3,34.42,P2,0.3997,P82
49146,C94,,31.2%,Max,306.9,P2,1.406,P2,-30.32,P2,-29.74,P2,19.85,P2,2.306,P2,117.1,P31,40.21,P3
49146,C94,,31.2%,Min,-364.9,P3,-0.9305,P3,-117.1,P31,-79.27,P8,-40.19,P3,-1.046,P3,30.35,P2,0.4719,P67
49146,C94,,37.5%,Max,306.9,P2,1.406,P2,-26.24,P2,-29.74,P2,-6.314,P2,2.310,P2,111.5,P31,59.97,P8
49146,C94,,37.5%,Min,-364.9,P3,-0.9305,P3,-111.5,P31,-79.27,P8,-59.96,P8,-1.215,P3,26.28,P2,6.723,P2
49146,C94,,43.7%,Max,306.9,P2,1.406,P2,-22.16,P2,-29.74,P2,-30.04,P79,2.313,P2,106.0,P31,95.26,P8
49146,C94,,43.7%,Min,-364.9,P3,-0.9305,P3,-106.0,P31,-79.27,P8,-95.26,P8,-1.383,P3,22.21,P2,30.06,P79
49146,C94,,50.0%,Max,306.9,P2,1.406,P2,-18.09,P2,-29.74,P2,-47.72,P79,2.317,P2,100.5,P31,128.6,P8
49146,C94,,50.0%,Min,-364.9,P3,-0.9305,P3,-100.5,P31,-79.27,P8,-128.6,P8,-1.552,P3,18.14,P2,47.74,P79
49146,C94,,50.0%,Max,365.6,P2,2.260,P2,14.36,P2,-12.26,P2,-48.11,P79,2.527,P2,44.42,P3,127.9,P8
49146,C94,,50.0%,Min,-448.2,P3,-1.367,P3,-44.40,P3,-40.42,P8,-127.9,P8,-0.6922,P3,7.691,P60,48.11,P79
49146,C94,,56.2%,Max,365.6,P2,2.260,P2,18.44,P2,-12.26,P2,-48.77,P2,2.677,P2,40.35,P3,134.3,P8
49146,C94,,56.2%,Min,-448.2,P3,-1.367,P3,-40.32,P3,-40.42,P8,-134.3,P8,-1.152,P3,3.736,P60,48.85,P2
49146,C94,,62.5%,Max,365.6,P2,2.260,P2,22.51,P2,-12.26,P2,-42.57,P2,2.827,P2,36.27,P3,138.9,P8
49146,C94,,62.5%,Min,-448.2,P3,-1.367,P3,-36.25,P3,-40.42,P8,-138.9,P8,-1.611,P3,1.262,P64,42.66,P2
49146,C94,,68.7%,Max,365.6,P2,2.260,P2,26.59,P2,-12.26,P2,-34.96,P2,2.977,P2,32.20,P3,144.5,P31
49146,C94,,68.7%,Min,-448.2,P3,-1.367,P3,-32.17,P3,-40.42,P8,-144.5,P31,-2.070,P3,0.2539,P48,35.08,P2
49146,C94,,75.0%,Max,365.6,P2,2.260,P2,30.67,P2,-12.26,P2,-25.93,P2,3.127,P2,30.75,P2,148.7,P31
49146,C94,,75.0%,Min,-448.2,P3,-1.367,P3,-28.09,P3,-40.42,P8,-148.7,P31,-2.530,P3,0.1253,P38,26.12,P2
49146,C94,,75.0%,Max,421.6,P2,22.61,P2,50.56,P2,-3.203,P2,-25.01,P2,7.244,P9,55.38,P2,149.1,P31
49146,C94,,75.0%,Min,-542.9,P3,-7.739,P3,-7.906,P3,-22.38,P3,-149.1,P31,0.01351,P3,5.893,P55,25.93,P2
49146,C94,,81.2%,Max,421.6,P2,22.61,P2,54.64,P2,-3.203,P2,-6.913,P2,7.903,P2,59.13,P2,136.7,P31
49146,C94,,81.2%,Min,-542.9,P3,-7.739,P3,-3.828,P3,-22.38,P3,-136.7,P31,-6.194,P3,5.539,P5,10.50,P2
49146,C94,,87.5%,Max,421.6,P2,22.61,P2,58.72,P2,-3.203,P2,12.60,P2,8.959,P2,62.92,P2,132.2,P3
49146,C94,,87.5%,Min,-542.9,P3,-7.739,P3,0.2491,P3,-22.38,P3,-131.7,P3,-12.40,P3,5.882,P5,10.30,P4
49146,C94,,93.7%,Max,421.6,P2,22.61,P2,62.79,P2,-3.203,P2,33.53,P2,10.01,P2,66.74,P2,132.1,P3
49146,C94,,93.7%,Min,-542.9,P3,-7.739,P3,4.326,P3,-22.38,P3,-130.7,P3,-18.61,P3,8.472,P5,28.56,P4
49146,C94,5987,100.0%,Max,421.6,P2,22.61,P2,66.87,P2,-3.203,P2,55.87,P2,11.07,P2,70.59,P2,130.8,P3
49146,C94,5987,100.0%,Min,-542.9,P3,-7.739,P3,8.404,P3,-22.38,P3,-128.4,P3,-24.82,P3,11.42,P3,17.24,P48
49173,C94,6198,0.0%,Max,62.68,P4,6.792,P2,-66.96,P84,40.52,P8,282.7,P31,6.609,P2,163.2,P31,282.7,P31
49173,C94,6198,0.0%,Min,-74.36,P5,-2.422,P3,-163.2,P31,12.81,P79,97.63,P3,-2.507,P3,67.02,P84,97.66,P3
49173,C94,,5.7%,Max,62.68,P4,6.792,P2,-62.72,P84,40.52,P8,224.9,P31,5.394,P2,157.5,P31,224.9,P31
49173,C94,,5.7%,Min,-74.36,P5,-2.422,P3,-157.5,P31,12.81,P79,71.58,P3,-2.866,P3,62.79,P84,71.64,P3
49173,C94,,11.5%,Max,62.68,P4,6.792,P2,-58.49,P84,40.52,P8,169.3,P31,4.180,P2,151.8,P31,169.3,P31
49173,C94,,11.5%,Min,-74.36,P5,-2.422,P3,-151.8,P31,12.81,P79,47.06,P3,-3.225,P3,58.56,P84,47.17,P3
49173,C94,,17.2%,Max,62.68,P4,6.792,P2,-54.25,P84,40.52,P8,115.7,P31,2.966,P2,146.1,P31,115.7,P31
49173,C94,,17.2%,Min,-74.36,P5,-2.422,P3,-146.0,P31,12.81,P79,24.06,P3,-3.584,P3,54.33,P84,24.32,P3
49173,C94,,22.9%,Max,62.68,P4,6.792,P2,-50.01,P84,40.52,P8,64.12,P31,1.752,P2,140.3,P31,64.12,P31
49173,C94,,22.9%,Min,-74.36,P5,-2.422,P3,-140.3,P31,12.81,P79,2.583,P3,-3.943,P3,50.10,P84,4.714,P3
49173,C94,,22.9%,Max,82.38,P4,4.758,P2,-8.323,P2,8.480,P8,57.37,P19,4.061,P2,51.08,P19,57.47,P2
49173,C94,,22.9%,Min,-94.04,P5,-3.582,P3,-51.07,P19,2.121,P79,-0.1846,P3,-3.023,P3,9.587,P2,2.372,P5
49173,C94,,28.6%,Max,82.38,P4,4.758,P2,-4.086,P2,8.480,P8,46.35,P2,3.739,P2,45.36,P19,46.50,P2
49173,C94,,28.6%,Min,-94.04,P5,-3.582,P3,-45.35,P19,2.121,P79,-6.053,P3,-3.125,P3,6.272,P2,5.776,P5
49173,C94,,34.4%,Max,82.38,P4,4.758,P2,0.1509,P2,8.480,P8,37.19,P4,3.417,P2,39.64,P19,37.29,P4
49173,C94,,34.4%,Min,-94.04,P5,-3.582,P3,-39.63,P19,2.121,P79,-10.69,P5,-3.227,P3,4.220,P4,7.365,P48
49173,C94,,40.1%,Max,82.38,P4,4.758,P2,4.388,P2,8.480,P8,30.25,P4,3.096,P2,33.92,P19,30.35,P4
49173,C94,,40.1%,Min,-94.04,P5,-3.582,P3,-33.91,P19,2.121,P79,-14.49,P5,-3.329,P3,0.6293,P84,1.798,P72
49173,C94,,45.8%,Max,82.38,P4,4.758,P2,8.625,P2,8.480,P8,24.83,P4,2.774,P2,28.20,P19,24.94,P4
49173,C94,,45.8%,Min,-94.04,P5,-3.582,P3,-28.19,P19,2.121,P79,-16.76,P5,-3.430,P3,1.028,P86,0.4083,P43
49173,C94,,45.8%,Max,103.8,P4,1.378,P76,34.21,P9,-8.797,P55,28.09,P4,2.516,P2,34.22,P9,28.15,P4
49173,C94,,45.8%,Min,-108.8,P5,-1.290,P3,-4.582,P79,-25.16,P24,-14.24,P5,-2.130,P3,0.5032,P56,0.3373,P56
49173,C94,,51.6%,Max,103.8,P4,1.378,P76,39.93,P9,-8.797,P55,36.42,P4,2.506,P2,39.94,P9,36.48,P4
49173,C94,,51.6%,Min,-108.8,P5,-1.290,P3,-0.3452,P79,-25.16,P24,-12.10,P5,-2.124,P3,1.105,P78,0.6417,P56
49173,C94,,57.3%,Max,103.8,P4,1.378,P76,45.65,P9,-8.797,P55,46.27,P4,2.495,P2,45.66,P9,46.33,P4
49173,C94,,57.3%,Min,-108.8,P5,-1.290,P3,3.892,P79,-25.16,P24,-8.434,P5,-2.118,P3,4.037,P79,0.5497,P71
49173,C94,,63.0%,Max,103.8,P4,1.378,P76,51.37,P9,-8.797,P55,63.15,P9,2.485,P2,51.38,P9,63.15,P9
49173,C94,,63.0%,Min,-108.8,P5,-1.290,P3,8.129,P79,-25.16,P24,-3.243,P5,-2.112,P3,8.200,P79,0.8542,P55
49173,C94,,68.7%,Max,103.8,P4,1.378,P76,57.09,P9,-8.797,P55,82.67,P9,2.567,P4,57.10,P9,82.67,P9
49173,C94,,68.7%,Min,-108.8,P5,-1.290,P3,12.37,P79,-25.16,P24,1.803,P79,-2.198,P5,12.41,P79,1.867,P79
49173,C94,,68.7%,Max,104.2,P4,37.15,P2,251.1,P6,107.1,P8,329.0,P8,32.74,P2,251.6,P6,329.0,P8
49173,C94,,68.7%,Min,-130.4,P5,-30.36,P3,104.9,P3,47.92,P5,110.9,P79,-27.10,P3,106.7,P87,112.2,P79
49173,C94,,76.6%,Max,104.2,P4,37.15,P2,258.9,P6,107.1,P8,451.2,P8,32.72,P2,259.4,P6,451.2,P8
49173,C94,,76.6%,Min,-130.4,P5,-30.36,P3,110.7,P3,47.92,P5,169.4,P79,-30.41,P3,112.5,P90,169.6,P79
49173,C94,,84.4%,Max,104.2,P4,37.15,P2,266.7,P6,107.1,P8,577.3,P8,32.70,P2,267.2,P6,577.3,P8
49173,C94,,84.4%,Min,-130.4,P5,-30.36,P3,116.4,P3,47.92,P5,230.8,P79,-33.72,P3,118.2,P90,230.8,P79
49173,C94,,92.2%,Max,104.2,P4,37.15,P2,274.5,P6,107.1,P8,707.3,P8,32.68,P2,275.0,P6,707.3,P8
49173,C94,,92.2%,Min,-130.4,P5,-30.36,P3,122.2,P3,47.92,P5,293.9,P55,-37.03,P3,123.9,P90,294.0,P55
49173,C94,4790,100.0%,Max,104.2,P4,37.15,P2,282.3,P6,107.1,P8,841.0,P8,32.65,P2,282.8,P6,841.0,P8
49173,C94,4790,100.0%,Min,-130.4,P5,-30.36,P3,128.0,P3,47.92,P5,359.6,P55,-40.34,P3,129.7,P90,359.9,P55
49174,C94,4792,0.0%,Max,21.45,P2,10.00,P2,-21.79,P2,3.164,P2,66.31,P79,10.79,P2,86.95,P6,88.98,P3
49174,C94,4792,0.0%,Min,-17.53,P3,-10.09,P3,-86.92,P6,-0.1186,P3,-88.38,P3,-10.29,P3,23.93,P85,0.3302,P44
49174,C94,,8.3%,Max,21.45,P2,10.00,P2,-17.08,P2,3.164,P2,44.38,P79,9.624,P2,80.60,P6,110.4,P9
49174,C94,,8.3%,Min,-17.53,P3,-10.09,P3,-80.56,P6,-0.1186,P3,-110.4,P9,-9.091,P3,19.26,P85,1.414,P43
49174,C94,,16.7%,Max,21.45,P2,10.00,P2,-12.37,P2,3.164,P2,24.33,P79,8.457,P2,74.24,P6,130.0,P9
49174,C94,,16.7%,Min,-17.53,P3,-10.09,P3,-74.20,P6,-0.1186,P3,-130.0,P9,-7.889,P3,14.62,P85,0.8550,P56
49174,C94,,25.0%,Max,21.45,P2,10.00,P2,-7.655,P2,3.164,P2,6.166,P79,7.290,P2,67.89,P6,147.0,P9
49174,C94,,25.0%,Min,-17.53,P3,-10.09,P3,-67.85,P6,-0.1186,P3,-147.0,P9,-6.686,P3,10.04,P85,0.5479,P81
49174,C94,,33.3%,Max,21.45,P2,10.00,P2,-2.945,P2,3.164,P2,-10.11,P79,6.123,P2,61.53,P6,161.5,P9
49174,C94,,33.3%,Min,-17.53,P3,-10.09,P3,-61.49,P6,-0.1186,P3,-161.4,P9,-5.484,P3,5.674,P85,10.24,P79
49174,C94,,33.3%,Max,39.61,P2,4.871,P2,42.57,P9,-2.507,P2,-10.16,P79,5.159,P2,42.62,P9,158.7,P9
49174,C94,,33.3%,Min,-36.91,P3,-4.754,P3,-14.31,P79,-10.24,P31,-158.7,P9,-4.441,P3,0.8880,P43,10.58,P79
49174,C94,,41.7%,Max,39.61,P2,4.871,P2,48.93,P9,-2.507,P2,-14.95,P79,4.764,P2,48.98,P9,140.4,P9
49174,C94,,41.7%,Min,-36.91,P3,-4.754,P3,-9.605,P79,-10.24,P31,-140.4,P9,-4.092,P3,1.314,P56,15.05,P79
49174,C94,,50.0%,Max,39.61,P2,4.871,P2,55.28,P9,-2.507,P2,-17.85,P79,4.368,P2,55.33,P9,121.2,P8
49174,C94,,50.0%,Min,-36.91,P3,-4.754,P3,-4.894,P79,-10.24,P31,-121.2,P8,-3.743,P3,2.497,P54,17.86,P79
49174,C94,,58.3%,Max,39.61,P2,4.871,P2,61.64,P9,-2.507,P2,-17.74,P77,3.972,P2,61.68,P9,99.63,P8
49174,C94,,58.3%,Min,-36.91,P3,-4.754,P3,-0.1842,P79,-10.24,P31,-99.63,P8,-3.394,P3,2.957,P79,17.74,P77
49174,C94,,66.7%,Max,39.61,P2,4.871,P2,68.00,P9,-2.507,P2,-14.34,P77,3.576,P2,68.04,P9,75.56,P8
49174,C94,,66.7%,Min,-36.91,P3,-4.754,P3,4.526,P79,-10.24,P31,-75.55,P8,-3.044,P3,5.403,P79,14.40,P77
49174,C94,,66.7%,Max,67.79,P79,12.48,P2,222.2,P8,9.982,P6,-8.174,P2,9.416,P2,222.2,P8,61.66,P8
49174,C94,,66.7%,Min,-66.48,P3,-10.51,P3,62.25,P79,0.5044,P3,-61.65,P8,-7.977,P3,62.63,P79,11.43,P77
49174,C94,,75.0%,Max,67.79,P79,12.48,P2,228.6,P8,9.982,P6,41.87,P2,9.296,P2,228.6,P8,42.89,P2
49174,C94,,75.0%,Min,-66.48,P3,-10.51,P3,66.96,P79,0.5044,P3,-3.724,P3,-8.645,P3,67.31,P79,6.763,P5
49174,C94,,83.3%,Max,67.79,P79,12.48,P2,234.9,P8,9.982,P6,121.3,P8,9.177,P2,234.9,P8,121.3,P8
49174,C94,,83.3%,Min,-66.48,P3,-10.51,P3,71.67,P79,0.5044,P3,36.15,P3,-9.312,P3,72.00,P79,37.33,P3
49174,C94,,91.7%,Max,67.79,P79,12.48,P2,241.3,P8,9.982,P6,216.6,P8,9.058,P2,241.3,P8,216.6,P8
49174,C94,,91.7%,Min,-66.48,P3,-10.51,P3,76.38,P79,0.5044,P3,70.08,P55,-9.979,P3,76.69,P79,70.11,P55
49174,C94,6198,100.0%,Max,67.79,P79,12.48,P2,247.6,P8,9.982,P6,314.5,P8,8.939,P2,247.6,P8,314.5,P8
49174,C94,6198,100.0%,Min,-66.48,P3,-10.51,P3,81.09,P79,0.5044,P3,102.2,P79,-10.65,P3,81.38,P79,102.3,P79
49193,C94,4794,0.0%,Max,317.8,P2,17.46,P61,-113.4,P81,27.48,P6,628.3,P24,17.80,P61,322.5,P24,628.4,P24
49193,C94,4794,0.0%,Min,-180.6,P3,-20.58,P5,-322.5,P24,5.803,P60,81.09,P3,-20.37,P5,114.9,P81,82.67,P3
49193,C94,,6.3%,Max,317.8,P2,17.46,P61,-109.7,P81,27.48,P6,504.2,P12,12.88,P4,317.6,P24,504.3,P12
49193,C94,,6.3%,Min,-180.6,P3,-20.58,P5,-317.6,P24,5.803,P60,33.10,P3,-17.25,P5,111.3,P81,35.66,P3
49193,C94,,12.5%,Max,317.8,P2,17.46,P61,-106.1,P81,27.48,P6,390.9,P12,12.46,P4,312.7,P24,390.9,P12
49193,C94,,12.5%,Min,-180.6,P3,-20.58,P5,-312.7,P24,5.803,P60,-13.49,P3,-14.13,P5,107.7,P81,6.815,P81
49193,C94,,18.8%,Max,317.8,P2,17.46,P61,-102.4,P81,27.48,P6,288.9,P2,12.03,P4,307.7,P24,289.1,P2
49193,C94,,18.8%,Min,-180.6,P3,-20.58,P5,-307.7,P24,5.803,P60,-58.65,P3,-11.01,P5,104.1,P81,5.403,P54
49193,C94,,25.0%,Max,317.8,P2,17.46,P61,-98.78,P81,27.48,P6,216.2,P2,11.61,P4,302.8,P24,216.4,P2
49193,C94,,25.0%,Min,-180.6,P3,-20.58,P5,-302.8,P24,5.803,P60,-102.4,P3,-9.289,P61,100.5,P81,4.776,P42
49193,C94,,25.0%,Max,262.3,P2,4.965,P61,-59.06,P81,23.14,P6,193.8,P2,4.381,P61,197.3,P24,193.9,P2
49193,C94,,25.0%,Min,-144.5,P3,-3.653,P5,-197.3,P24,5.803,P60,-115.1,P3,-2.986,P81,59.16,P81,0.7842,P76
49193,C94,,31.2%,Max,262.3,P2,4.965,P61,-55.40,P81,23.14,P6,142.0,P2,3.656,P4,192.4,P24,142.1,P2
49193,C94,,31.2%,Min,-144.5,P3,-3.653,P5,-192.3,P24,5.803,P60,-137.9,P3,-2.873,P5,55.51,P81,0.4724,P66
49193,C94,,37.5%,Max,262.3,P2,4.965,P61,-51.75,P81,23.14,P6,91.63,P2,3.438,P4,187.4,P24,159.4,P3
49193,C94,,37.5%,Min,-144.5,P3,-3.653,P5,-187.4,P24,5.803,P60,-159.4,P3,-3.005,P5,51.87,P81,0.6526,P93
49193,C94,,43.7%,Max,262.3,P2,4.965,P61,-48.10,P81,23.14,P6,42.65,P2,3.220,P4,182.5,P24,193.1,P21
49193,C94,,43.7%,Min,-144.5,P3,-3.653,P5,-182.5,P24,5.803,P60,-193.1,P21,-3.138,P5,48.22,P81,1.297,P58
49193,C94,,50.0%,Max,262.3,P2,4.965,P61,-44.45,P81,23.14,P6,3.143,P60,3.002,P4,177.6,P24,249.0,P33
49193,C94,,50.0%,Min,-144.5,P3,-3.653,P5,-177.5,P24,5.803,P60,-249.0,P33,-3.321,P61,44.58,P81,3.358,P61
49193,C94,,50.0%,Max,249.5,P2,4.134,P2,30.31,P2,-0.6086,P4,-6.640,P60,3.610,P2,44.59,P3,263.5,P33
49193,C94,,50.0%,Min,-131.8,P3,-2.700,P3,-44.51,P3,-5.962,P23,-263.5,P33,-2.408,P3,0.1280,P32,7.298,P60
49193,C94,,56.2%,Max,249.5,P2,4.134,P2,33.96,P2,-0.6086,P4,-18.98,P60,3.198,P2,40.95,P3,262.4,P33
49193,C94,,56.2%,Min,-131.8,P3,-2.700,P3,-40.86,P3,-5.962,P23,-262.4,P33,-2.553,P3,0.6036,P69,19.04,P60
49193,C94,,62.5%,Max,249.5,P2,4.134,P2,37.61,P2,-0.6086,P4,-29.91,P60,2.787,P2,37.84,P2,259.3,P33
49193,C94,,62.5%,Min,-131.8,P3,-2.700,P3,-37.21,P3,-5.962,P23,-259.3,P33,-2.698,P3,0.9425,P47,29.91,P60
49193,C94,,68.7%,Max,249.5,P2,4.134,P2,41.27,P2,-0.6086,P4,-39.40,P84,2.376,P2,41.47,P2,254.3,P33
49193,C94,,68.7%,Min,-131.8,P3,-2.700,P3,-33.56,P3,-5.962,P23,-254.3,P33,-2.843,P3,0.4611,P66,39.42,P84
49193,C94,,75.0%,Max,249.5,P2,4.134,P2,44.92,P2,-0.6086,P4,-47.26,P85,2.122,P4,45.11,P2,247.4,P33
49193,C94,,75.0%,Min,-131.8,P3,-2.700,P3,-29.90,P3,-5.962,P23,-247.4,P33,-3.145,P5,1.529,P48,47.35,P85
49193,C94,,75.0%,Max,260.6,P2,6.605,P61,122.5,P6,9.863,P6,-46.81,P61,4.323,P61,122.5,P6,238.4,P33
49193,C94,,75.0%,Min,-134.5,P3,-6.578,P81,18.07,P3,2.319,P3,-238.4,P33,-4.456,P81,18.64,P3,47.01,P61
49193,C94,,81.2%,Max,260.6,P2,6.605,P61,127.4,P6,9.863,P6,-38.00,P61,3.422,P4,127.5,P6,190.6,P33
49193,C94,,81.2%,Min,-134.5,P3,-6.578,P81,21.72,P3,2.319,P3,-190.6,P33,-3.714,P5,22.20,P3,38.04,P61
49193,C94,,87.5%,Max,260.6,P2,6.605,P61,132.3,P6,9.863,P6,-27.78,P61,3.917,P4,132.4,P6,141.7,P31
49193,C94,,87.5%,Min,-134.5,P3,-6.578,P81,25.37,P3,2.319,P3,-141.7,P31,-3.814,P5,25.78,P3,27.79,P61
49193,C94,,93.7%,Max,260.6,P2,6.605,P61,137.3,P6,9.863,P6,-3.821,P2,4.412,P4,137.3,P6,91.74,P30
49193,C94,,93.7%,Min,-134.5,P3,-6.578,P81,29.03,P3,2.319,P3,-91.73,P30,-3.913,P5,29.38,P3,5.362,P2
49193,C94,26184,100.0%,Max,260.6,P2,6.605,P61,142.2,P6,9.863,P6,22.62,P2,5.749,P81,142.2,P6,44.84,P10
49193,C94,26184,100.0%,Min,-134.5,P3,-6.578,P81,32.68,P3,2.319,P3,-44.79,P10,-5.924,P61,33.00,P3,1.168,P53
49196,C94,26184,0.0%,Max,278.0,P2,15.36,P2,37.32,P57,-8.916,P58,28.91,P2,12.33,P2,116.0,P9,31.43,P2
49196,C94,26184,0.0%,Min,-137.8,P3,-7.027,P3,-115.8,P9,-31.51,P6,-27.89,P18,-6.097,P3,3.768,P71,0.3804,P82
49196,C94,,8.3%,Max,278.0,P2,15.36,P2,40.57,P57,-8.916,P58,25.40,P2,10.19,P2,111.6,P9,50.29,P3
49196,C94,,8.3%,Min,-137.8,P3,-7.027,P3,-111.5,P9,-31.51,P6,-49.83,P3,-6.836,P3,3.442,P50,2.463,P81
49196,C94,,16.7%,Max,278.0,P2,15.36,P2,43.81,P57,-8.916,P58,23.00,P2,8.057,P2,107.2,P9,79.10,P3
49196,C94,,16.7%,Min,-137.8,P3,-7.027,P3,-107.1,P9,-31.51,P6,-78.74,P3,-7.574,P3,2.236,P50,1.082,P54
49196,C94,,25.0%,Max,278.0,P2,15.36,P2,47.06,P57,-8.916,P58,25.32,P57,5.923,P2,102.8,P9,108.6,P9
49196,C94,,25.0%,Min,-137.8,P3,-7.027,P3,-102.7,P9,-31.51,P6,-108.5,P9,-8.313,P3,2.021,P46,1.117,P75
49196,C94,,33.3%,Max,278.0,P2,15.36,P2,50.31,P57,-8.916,P58,42.11,P57,3.789,P2,99.00,P85,143.2,P9
49196,C94,,33.3%,Min,-137.8,P3,-7.027,P3,-98.99,P85,-31.51,P6,-143.2,P9,-9.051,P3,1.952,P69,1.789,P43
49196,C94,,33.3%,Max,275.4,P2,10.81,P2,98.67,P21,-2.130,P58,48.64,P57,6.908,P2,98.67,P21,147.9,P9
49196,C94,,33.3%,Min,-142.4,P3,-6.621,P3,-57.71,P85,-18.43,P6,-147.9,P9,-4.964,P3,2.117,P93,2.505,P43
49196,C94,,41.7%,Max,275.4,P2,10.81,P2,103.1,P21,-2.130,P58,80.63,P57,6.282,P2,103.1,P21,154.6,P84
49196,C94,,41.7%,Min,-142.4,P3,-6.621,P3,-54.47,P85,-18.43,P6,-154.6,P84,-5.782,P3,2.394,P91,3.559,P69
49196,C94,,50.0%,Max,275.4,P2,10.81,P2,107.4,P21,-2.130,P58,113.7,P57,5.657,P2,107.4,P21,172.6,P84
49196,C94,,50.0%,Min,-142.4,P3,-6.621,P3,-51.22,P85,-18.43,P6,-172.6,P84,-6.600,P3,2.917,P90,0.8243,P32
49196,C94,,58.3%,Max,275.4,P2,10.81,P2,111.8,P21,-2.130,P58,148.0,P57,5.031,P2,111.8,P21,189.7,P85
49196,C94,,58.3%,Min,-142.4,P3,-6.621,P3,-47.97,P85,-18.43,P6,-189.7,P85,-7.417,P3,4.270,P59,1.995,P66
49196,C94,,66.7%,Max,275.4,P2,10.81,P2,116.2,P21,-2.130,P58,183.3,P57,4.406,P2,116.2,P21,205.7,P85
49196,C94,,66.7%,Min,-142.4,P3,-6.621,P3,-44.73,P85,-18.43,P6,-205.6,P85,-8.235,P3,6.571,P59,2.844,P14
49196,C94,,66.7%,Max,239.8,P2,14.80,P2,207.0,P21,4.790,P58,190.0,P57,8.903,P2,207.1,P21,213.7,P85
49196,C94,,66.7%,Min,-137.9,P3,-18.76,P3,-6.251,P85,-4.331,P5,-213.7,P85,-10.73,P3,5.464,P64,1.595,P15
49196,C94,,75.0%,Max,239.8,P2,14.80,P2,211.4,P21,4.790,P58,240.4,P57,10.54,P2,211.5,P21,240.4,P57
49196,C94,,75.0%,Min,-137.9,P3,-18.76,P3,-3.005,P85,-4.331,P5,-215.3,P85,-11.01,P3,5.641,P88,3.787,P35
49196,C94,,83.3%,Max,239.8,P2,14.80,P2,215.8,P21,4.790,P58,291.8,P57,12.18,P2,215.9,P21,291.8,P57
49196,C94,,83.3%,Min,-137.9,P3,-18.76,P3,0.2410,P85,-4.331,P5,-215.8,P85,-11.28,P3,5.965,P84,8.287,P8
49196,C94,,91.7%,Max,239.8,P2,14.80,P2,220.1,P21,4.790,P58,347.3,P21,13.82,P2,220.3,P21,347.4,P21
49196,C94,,91.7%,Min,-137.9,P3,-18.76,P3,3.487,P85,-4.331,P5,-215.1,P85,-11.56,P3,7.105,P85,1.053,P93
49196,C94,5244,100.0%,Max,239.8,P2,14.80,P2,224.5,P21,4.790,P58,424.0,P21,15.46,P2,224.7,P21,424.1,P21
49196,C94,5244,100.0%,Min,-137.9,P3,-18.76,P3,6.732,P85,-4.331,P5,-213.4,P85,-11.83,P3,9.146,P85,3.512,P91
49220,C94,5223,0.0%,Max,126.9,P2,19.48,P2,-0.4743,P61,7.851,P7,550.1,P21,15.66,P2,212.3,P21,550.2,P21
49220,C94,5223,0.0%,Min,-91.58,P3,-13.84,P3,-212.2,P21,-3.448,P83,-184.8,P61,-10.70,P3,3.535,P61,17.12,P13
49220,C94,,8.3%,Max,126.9,P2,19.48,P2,2.771,P61,7.851,P7,477.7,P21,13.91,P2,207.9,P21,477.7,P21
49220,C94,,8.3%,Min,-91.58,P3,-13.84,P3,-207.8,P21,-3.448,P83,-184.4,P61,-10.89,P3,3.690,P60,4.231,P35
49220,C94,,16.7%,Max,126.9,P2,19.48,P2,6.017,P61,7.851,P7,406.8,P21,12.15,P2,203.5,P21,406.8,P21
49220,C94,,16.7%,Min,-91.58,P3,-13.84,P3,-203.5,P21,-3.448,P83,-182.9,P61,-11.08,P3,3.687,P64,4.377,P39
49220,C94,,25.0%,Max,126.9,P2,19.48,P2,9.263,P61,7.851,P7,337.4,P21,10.39,P2,199.2,P21,337.4,P21
49220,C94,,25.0%,Min,-91.58,P3,-13.84,P3,-199.1,P21,-3.448,P83,-180.3,P61,-11.26,P3,4.559,P84,1.946,P91
49220,C94,,33.3%,Max,126.9,P2,19.48,P2,12.51,P61,7.851,P7,280.3,P57,8.636,P2,194.8,P21,280.3,P57
49220,C94,,33.3%,Min,-91.58,P3,-13.84,P3,-194.7,P21,-3.448,P83,-177.0,P60,-11.45,P3,2.964,P37,1.402,P76
49220,C94,,33.3%,Max,133.2,P2,6.156,P2,55.05,P61,19.26,P6,274.7,P57,3.739,P2,94.83,P21,274.7,P57
49220,C94,,33.3%,Min,-71.41,P3,-7.882,P3,-94.82,P21,2.162,P85,-168.3,P60,-5.625,P3,0.7906,P35,1.678,P47
49220,C94,,41.7%,Max,133.2,P2,6.156,P2,58.29,P61,19.26,P6,244.2,P57,4.170,P2,90.45,P21,244.2,P57
49220,C94,,41.7%,Min,-71.41,P3,-7.882,P3,-90.44,P21,2.162,P85,-149.4,P60,-5.460,P3,1.170,P39,0.6469,P8
49220,C94,,50.0%,Max,133.2,P2,6.156,P2,61.54,P61,19.26,P6,214.9,P57,4.600,P2,86.06,P21,214.9,P57
49220,C94,,50.0%,Min,-71.41,P3,-7.882,P3,-86.06,P21,2.162,P85,-129.4,P60,-5.295,P3,0.8653,P38,2.176,P50
49220,C94,,58.3%,Max,133.2,P2,6.156,P2,64.78,P61,19.26,P6,186.6,P57,5.031,P2,81.68,P21,186.6,P57
49220,C94,,58.3%,Min,-71.41,P3,-7.882,P3,-81.68,P21,2.162,P85,-108.3,P60,-5.131,P3,0.7701,P8,0.4061,P23
49220,C94,,66.7%,Max,133.2,P2,6.156,P2,68.03,P61,19.26,P6,159.5,P57,5.461,P2,77.30,P21,159.5,P57
49220,C94,,66.7%,Min,-71.41,P3,-7.882,P3,-77.30,P21,2.162,P85,-86.05,P60,-4.966,P3,1.758,P11,0.7416,P26
49220,C94,,66.7%,Max,124.6,P2,7.216,P2,124.6,P13,29.80,P6,153.1,P57,3.714,P2,124.6,P13,153.1,P57
49220,C94,,66.7%,Min,-54.65,P3,-12.95,P3,-40.30,P57,7.613,P82,-79.26,P60,-7.283,P3,4.057,P43,2.101,P8
49220,C94,,75.0%,Max,124.6,P2,7.216,P2,128.9,P13,29.80,P6,145.7,P21,5.457,P2,129.0,P13,145.7,P21
49220,C94,,75.0%,Min,-54.65,P3,-12.95,P3,-37.05,P57,7.613,P82,-43.24,P60,-7.050,P3,6.278,P79,1.046,P53
49220,C94,,83.3%,Max,124.6,P2,7.216,P2,133.3,P13,29.80,P6,150.6,P21,7.200,P2,133.4,P13,150.6,P21
49220,C94,,83.3%,Min,-54.65,P3,-12.95,P3,-33.81,P57,7.613,P82,-10.80,P58,-6.817,P3,4.943,P68,0.6820,P34
49220,C94,,91.7%,Max,124.6,P2,7.216,P2,137.7,P13,29.80,P6,157.1,P21,8.943,P2,137.7,P13,157.1,P21
49220,C94,,91.7%,Min,-54.65,P3,-12.95,P3,-30.56,P57,7.613,P82,13.29,P58,-6.584,P3,2.147,P68,13.30,P58
49220,C94,26197,100.0%,Max,124.6,P2,7.216,P2,142.1,P13,29.80,P6,165.0,P21,10.69,P2,142.1,P13,165.0,P21
49220,C94,26197,100.0%,Min,-54.65,P3,-12.95,P3,-27.32,P57,7.613,P82,38.50,P58,-6.350,P3,1.847,P69,38.51,P58
49223,C94,26197,0.0%,Max,98.25,P4,3.105,P4,-56.42,P60,-0.01642,P4,192.9,P21,2.454,P4,249.1,P21,192.9,P21
49223,C94,26197,0.0%,Min,-42.85,P5,-1.457,P5,-249.0,P21,-6.231,P5,33.81,P58,-1.128,P5,56.42,P60,33.81,P58
49223,C94,,6.2%,Max,98.25,P4,3.105,P4,-52.76,P60,-0.01642,P4,97.28,P21,2.203,P4,244.1,P21,97.28,P21
49223,C94,,6.2%,Min,-42.85,P5,-1.457,P5,-244.1,P21,-6.231,P5,9.702,P58,-1.516,P5,52.76,P60,9.703,P58
49223,C94,,12.5%,Max,98.25,P4,3.105,P4,-49.11,P60,-0.01642,P4,39.10,P4,1.953,P4,239.2,P21,39.15,P4
49223,C94,,12.5%,Min,-42.85,P5,-1.457,P5,-239.2,P21,-6.231,P5,-38.40,P18,-1.905,P5,49.11,P60,0.5036,P7
49223,C94,,18.7%,Max,98.25,P4,3.105,P4,-45.46,P60,-0.01642,P4,11.74,P61,1.702,P4,234.3,P21,112.6,P19
49223,C94,,18.7%,Min,-42.85,P5,-1.457,P5,-234.3,P21,-6.231,P5,-112.5,P19,-2.293,P5,45.46,P60,0.2269,P84
49223,C94,,25.0%,Max,98.25,P4,3.105,P4,-41.81,P60,-0.01642,P4,-5.996,P61,1.451,P4,229.3,P21,187.4,P31
49223,C94,,25.0%,Min,-42.85,P5,-1.457,P5,-229.3,P21,-6.231,P5,-187.4,P31,-2.681,P5,41.81,P60,5.996,P61
49223,C94,,25.0%,Max,83.90,P4,1.764,P2,-0.9869,P60,7.505,P32,-8.903,P61,1.100,P2,135.2,P21,204.7,P31
49223,C94,,25.0%,Min,-29.54,P5,-2.660,P3,-135.2,P21,0.4513,P79,-204.7,P31,-1.767,P3,0.9869,P60,8.904,P61
49223,C94,,31.2%,Max,83.90,P4,1.764,P2,2.664,P60,7.505,P32,-9.386,P61,1.476,P2,130.2,P21,250.6,P21
49223,C94,,31.2%,Min,-29.54,P5,-2.660,P3,-130.2,P21,0.4513,P79,-250.6,P21,-1.796,P3,0.5811,P61,9.387,P61
49223,C94,,37.5%,Max,83.90,P4,1.764,P2,6.316,P60,7.505,P32,-8.453,P61,1.853,P2,125.3,P21,300.2,P21
49223,C94,,37.5%,Min,-29.54,P5,-2.660,P3,-125.3,P21,0.4513,P79,-300.2,P21,-1.826,P3,0.2559,P65,8.454,P61
49223,C94,,43.7%,Max,83.90,P4,1.764,P2,9.967,P60,7.505,P32,-6.103,P61,2.230,P2,120.4,P21,347.8,P21
49223,C94,,43.7%,Min,-29.54,P5,-2.660,P3,-120.4,P21,0.4513,P79,-347.8,P21,-1.855,P3,0.1123,P59,6.105,P61
49223,C94,,50.0%,Max,83.90,P4,1.764,P2,13.62,P60,7.505,P32,-2.338,P61,2.607,P2,115.4,P21,393.5,P21
49223,C94,,50.0%,Min,-29.54,P5,-2.660,P3,-115.4,P21,0.4513,P79,-393.5,P21,-1.884,P3,0.3392,P82,2.341,P61
49223,C94,,50.0%,Max,82.57,P13,1.990,P2,103.5,P12,-7.936,P92,3.143,P61,1.316,P2,103.5,P12,397.9,P21
49223,C94,,50.0%,Min,-18.51,P5,-2.864,P3,-30.68,P57,-27.87,P6,-397.9,P21,-1.745,P3,3.290,P5,3.126,P60
49223,C94,,56.2%,Max,82.57,P13,1.990,P2,108.5,P12,-7.936,P92,31.15,P60,1.703,P2,108.5,P12,390.7,P21
49223,C94,,56.2%,Min,-18.51,P5,-2.864,P3,-27.03,P57,-27.87,P6,-390.7,P21,-1.793,P3,6.574,P5,1.194,P85
49223,C94,,62.5%,Max,82.57,P13,1.990,P2,113.4,P12,-7.936,P92,60.59,P60,2.089,P2,113.4,P12,381.6,P21
49223,C94,,62.5%,Min,-18.51,P5,-2.864,P3,-23.38,P57,-27.87,P6,-381.6,P21,-1.841,P3,5.836,P80,2.321,P52
49223,C94,,68.7%,Max,82.57,P13,1.990,P2,118.3,P12,-7.936,P92,91.46,P60,2.476,P2,118.3,P12,370.6,P21
49223,C94,,68.7%,Min,-18.51,P5,-2.864,P3,-19.73,P57,-27.87,P6,-370.6,P21,-1.888,P3,2.259,P80,2.656,P34
49223,C94,,75.0%,Max,82.57,P13,1.990,P2,123.2,P12,-7.936,P92,123.7,P60,2.863,P2,123.2,P12,357.6,P21
49223,C94,,75.0%,Min,-18.51,P5,-2.864,P3,-16.07,P57,-27.87,P6,-357.6,P21,-1.936,P3,1.143,P81,2.095,P39
49223,C94,,75.0%,Max,100.2,P13,9.234,P4,216.7,P24,-7.731,P85,137.8,P60,5.407,P4,216.7,P24,345.1,P21
49223,C94,,75.0%,Min,-22.37,P57,-8.450,P68,19.79,P57,-30.88,P6,-345.1,P21,-4.759,P5,19.91,P57,2.727,P47
49223,C94,,81.2%,Max,100.2,P13,9.234,P4,221.6,P24,-7.731,P85,186.1,P60,5.998,P4,221.6,P24,297.1,P21
49223,C94,,81.2%,Min,-22.37,P57,-8.450,P68,23.45,P57,-30.88,P6,-297.1,P21,-5.808,P5,23.54,P57,1.560,P90
49223,C94,,87.5%,Max,100.2,P13,9.234,P4,226.6,P24,-7.731,P85,235.8,P60,6.590,P4,226.6,P24,281.1,P57
49223,C94,,87.5%,Min,-22.37,P57,-8.450,P68,27.10,P57,-30.88,P6,-281.1,P57,-6.858,P5,27.18,P57,6.369,P75
49223,C94,,93.7%,Max,100.2,P13,9.234,P4,231.5,P24,-7.731,P85,287.0,P60,7.181,P4,231.5,P24,287.0,P60
49223,C94,,93.7%,Min,-22.37,P57,-8.450,P68,30.75,P57,-30.88,P6,-269.9,P57,-7.907,P5,30.82,P57,7.409,P19
49223,C94,4793,100.0%,Max,100.2,P13,9.234,P4,236.4,P24,-7.731,P85,373.5,P12,8.394,P68,236.4,P24,373.5,P12
49223,C94,4793,100.0%,Min,-22.37,P57,-8.450,P68,34.40,P57,-30.88,P6,-257.3,P57,-8.957,P5,34.46,P57,3.105,P32
END_TABLE
